# vtk DataFile Version 2.0
Bulk mesh generated by generateVTK.m
ASCII
DATASET UNSTRUCTURED_GRID

POINTS 196 float
   0.000e+00  -1.100e+00   0.000e+00
   5.500e-01  -1.100e+00   0.000e+00
   0.000e+00  -5.500e-01   0.000e+00
   1.100e+00  -1.100e+00   0.000e+00
   8.250e-01  -8.250e-01   0.000e+00
   8.250e-01  -1.100e+00   0.000e+00
   5.500e-01  -5.500e-01   0.000e+00
   5.500e-01  -8.250e-01   0.000e+00
   8.206e-01  -8.206e-01   0.000e+00
   8.206e-01  -8.250e-01   0.000e+00
   8.206e-01  -8.206e-01   0.000e+00
   8.206e-01  -8.250e-01   0.000e+00
   8.250e-01  -8.250e-01   0.000e+00
   5.500e-01  -8.250e-01   0.000e+00
   8.206e-01  -8.250e-01   0.000e+00
   8.206e-01  -1.096e+00   0.000e+00
   8.206e-01  -8.250e-01   0.000e+00
   8.206e-01  -1.096e+00   0.000e+00
   8.250e-01  -1.100e+00   0.000e+00
   8.250e-01  -8.250e-01   0.000e+00
   5.500e-01  -1.100e+00   0.000e+00
   8.206e-01  -1.096e+00   0.000e+00
   8.206e-01  -1.100e+00   0.000e+00
   5.500e-01  -8.250e-01   0.000e+00
   8.206e-01  -1.096e+00   0.000e+00
   8.206e-01  -1.100e+00   0.000e+00
   8.250e-01  -1.100e+00   0.000e+00
   5.500e-01  -5.500e-01   0.000e+00
   0.000e+00  -5.500e-01   0.000e+00
   5.500e-01  -1.100e+00   0.000e+00
   0.000e+00   0.000e+00   0.000e+00
   0.000e+00  -5.500e-01   0.000e+00
   5.500e-01  -5.500e-01   0.000e+00
   2.200e+00  -1.100e+00   0.000e+00
   1.100e+00   0.000e+00   0.000e+00
   1.100e+00  -1.100e+00   0.000e+00
   1.100e+00   0.000e+00   0.000e+00
   8.250e-01   0.000e+00   0.000e+00
   1.100e+00  -2.750e-01   0.000e+00
   5.500e-01   0.000e+00   0.000e+00
   8.206e-01  -2.706e-01   0.000e+00
   8.206e-01   0.000e+00   0.000e+00
   8.206e-01  -2.706e-01   0.000e+00
   8.206e-01   0.000e+00   0.000e+00
   8.250e-01  -2.750e-01   0.000e+00
   8.250e-01   0.000e+00   0.000e+00
   8.250e-01  -2.750e-01   0.000e+00
   1.100e+00  -2.750e-01   0.000e+00
   8.250e-01   0.000e+00   0.000e+00
   1.100e+00  -5.500e-01   0.000e+00
   1.100e+00  -2.750e-01   0.000e+00
   8.250e-01  -2.750e-01   0.000e+00
   0.000e+00   0.000e+00   0.000e+00
   5.500e-01  -5.500e-01   0.000e+00
   5.500e-01   0.000e+00   0.000e+00
   5.500e-01  -5.500e-01   0.000e+00
   8.206e-01  -5.500e-01   0.000e+00
   8.206e-01  -5.456e-01   0.000e+00
   5.500e-01  -2.750e-01   0.000e+00
   8.206e-01  -5.500e-01   0.000e+00
   8.206e-01  -5.456e-01   0.000e+00
   8.250e-01  -5.500e-01   0.000e+00
   1.100e+00  -5.500e-01   0.000e+00
   8.250e-01  -2.750e-01   0.000e+00
   8.250e-01  -5.500e-01   0.000e+00
   8.206e-01  -5.456e-01   0.000e+00
   8.206e-01  -2.750e-01   0.000e+00
   5.500e-01  -2.750e-01   0.000e+00
   8.250e-01  -2.750e-01   0.000e+00
   8.206e-01  -5.456e-01   0.000e+00
   8.206e-01  -2.750e-01   0.000e+00
   8.250e-01  -5.500e-01   0.000e+00
   5.500e-01   0.000e+00   0.000e+00
   5.500e-01  -2.750e-01   0.000e+00
   8.206e-01  -2.750e-01   0.000e+00
   8.206e-01  -2.706e-01   0.000e+00
   8.206e-01  -2.750e-01   0.000e+00
   8.206e-01  -2.706e-01   0.000e+00
   8.250e-01  -2.750e-01   0.000e+00
   1.100e+00  -1.100e+00   0.000e+00
   1.100e+00  -8.250e-01   0.000e+00
   8.250e-01  -8.250e-01   0.000e+00
   1.100e+00  -5.500e-01   0.000e+00
   8.250e-01  -5.500e-01   0.000e+00
   1.100e+00  -8.250e-01   0.000e+00
   8.250e-01  -5.500e-01   0.000e+00
   8.250e-01  -8.250e-01   0.000e+00
   1.100e+00  -8.250e-01   0.000e+00
   5.500e-01  -5.500e-01   0.000e+00
   8.206e-01  -8.206e-01   0.000e+00
   8.206e-01  -5.500e-01   0.000e+00
   8.206e-01  -8.206e-01   0.000e+00
   8.206e-01  -5.500e-01   0.000e+00
   8.250e-01  -8.250e-01   0.000e+00
   8.250e-01  -5.500e-01   0.000e+00
   0.000e+00   1.100e+00   0.000e+00
   0.000e+00   5.500e-01   0.000e+00
   5.500e-01   5.500e-01   0.000e+00
   0.000e+00   0.000e+00   0.000e+00
   5.500e-01   0.000e+00   0.000e+00
   0.000e+00   5.500e-01   0.000e+00
   5.500e-01   0.000e+00   0.000e+00
   5.500e-01   5.500e-01   0.000e+00
   0.000e+00   5.500e-01   0.000e+00
   1.100e+00   0.000e+00   0.000e+00
   8.250e-01   2.750e-01   0.000e+00
   8.250e-01   0.000e+00   0.000e+00
   5.500e-01   5.500e-01   0.000e+00
   5.500e-01   2.750e-01   0.000e+00
   8.206e-01   2.794e-01   0.000e+00
   8.206e-01   2.750e-01   0.000e+00
   8.206e-01   2.794e-01   0.000e+00
   8.206e-01   2.750e-01   0.000e+00
   8.250e-01   2.750e-01   0.000e+00
   5.500e-01   2.750e-01   0.000e+00
   8.206e-01   2.750e-01   0.000e+00
   8.206e-01   4.400e-03   0.000e+00
   8.206e-01   2.750e-01   0.000e+00
   8.206e-01   4.400e-03   0.000e+00
   8.250e-01   0.000e+00   0.000e+00
   8.250e-01   2.750e-01   0.000e+00
   5.500e-01   0.000e+00   0.000e+00
   8.206e-01   4.400e-03   0.000e+00
   8.206e-01   0.000e+00   0.000e+00
   5.500e-01   2.750e-01   0.000e+00
   8.206e-01   4.400e-03   0.000e+00
   8.206e-01   0.000e+00   0.000e+00
   8.250e-01   0.000e+00   0.000e+00
   2.200e+00  -1.100e+00   0.000e+00
   2.200e+00   0.000e+00   0.000e+00
   1.100e+00   0.000e+00   0.000e+00
   2.200e+00   1.100e+00   0.000e+00
   1.100e+00   1.100e+00   0.000e+00
   2.200e+00   0.000e+00   0.000e+00
   1.100e+00   1.100e+00   0.000e+00
   1.100e+00   0.000e+00   0.000e+00
   2.200e+00   0.000e+00   0.000e+00
   0.000e+00   1.100e+00   0.000e+00
   5.500e-01   5.500e-01   0.000e+00
   5.500e-01   1.100e+00   0.000e+00
   1.100e+00   0.000e+00   0.000e+00
   1.100e+00   2.750e-01   0.000e+00
   8.250e-01   2.750e-01   0.000e+00
   1.100e+00   5.500e-01   0.000e+00
   8.250e-01   5.500e-01   0.000e+00
   1.100e+00   2.750e-01   0.000e+00
   8.250e-01   5.500e-01   0.000e+00
   8.250e-01   2.750e-01   0.000e+00
   1.100e+00   2.750e-01   0.000e+00
   5.500e-01   5.500e-01   0.000e+00
   8.206e-01   2.794e-01   0.000e+00
   8.206e-01   5.500e-01   0.000e+00
   8.206e-01   2.794e-01   0.000e+00
   8.206e-01   5.500e-01   0.000e+00
   8.250e-01   2.750e-01   0.000e+00
   8.250e-01   5.500e-01   0.000e+00
   1.100e+00   5.500e-01   0.000e+00
   8.250e-01   8.250e-01   0.000e+00
   8.250e-01   5.500e-01   0.000e+00
   5.500e-01   1.100e+00   0.000e+00
   5.500e-01   8.250e-01   0.000e+00
   8.206e-01   8.294e-01   0.000e+00
   8.206e-01   8.250e-01   0.000e+00
   8.206e-01   8.294e-01   0.000e+00
   8.206e-01   8.250e-01   0.000e+00
   8.250e-01   8.250e-01   0.000e+00
   5.500e-01   8.250e-01   0.000e+00
   8.206e-01   8.250e-01   0.000e+00
   8.206e-01   5.544e-01   0.000e+00
   8.206e-01   8.250e-01   0.000e+00
   8.206e-01   5.544e-01   0.000e+00
   8.250e-01   5.500e-01   0.000e+00
   8.250e-01   8.250e-01   0.000e+00
   5.500e-01   5.500e-01   0.000e+00
   8.206e-01   5.544e-01   0.000e+00
   8.206e-01   5.500e-01   0.000e+00
   5.500e-01   8.250e-01   0.000e+00
   8.206e-01   5.544e-01   0.000e+00
   8.206e-01   5.500e-01   0.000e+00
   8.250e-01   5.500e-01   0.000e+00
   1.100e+00   1.100e+00   0.000e+00
   8.250e-01   1.100e+00   0.000e+00
   1.100e+00   8.250e-01   0.000e+00
   5.500e-01   1.100e+00   0.000e+00
   8.206e-01   8.294e-01   0.000e+00
   8.206e-01   1.100e+00   0.000e+00
   8.206e-01   8.294e-01   0.000e+00
   8.206e-01   1.100e+00   0.000e+00
   8.250e-01   8.250e-01   0.000e+00
   8.250e-01   1.100e+00   0.000e+00
   8.250e-01   8.250e-01   0.000e+00
   1.100e+00   8.250e-01   0.000e+00
   8.250e-01   1.100e+00   0.000e+00
   1.100e+00   5.500e-01   0.000e+00
   1.100e+00   8.250e-01   0.000e+00
   8.250e-01   8.250e-01   0.000e+00

CELLS 60 256
         3         0         1         2
         3         3         4         5
         4         6         7         9         8
         3        10        11        12
         3        13        14        15
         4        16        17        18        19
         4        20        22        21        23
         3        24        25        26
         3        27        28        29
         3        30        31        32
         3        33        34        35
         3        36        37        38
         3        39        40        41
         4        42        44        45        43
         3        46        47        48
         3        49        50        51
         3        52        53        54
         4        55        56        57        58
         3        59        60        61
         3        62        63        64
         3        65        66        67
         4        68        70        69        71
         4        72        73        74        75
         3        76        77        78
         3        79        80        81
         3        82        83        84
         3        85        86        87
         3        88        89        90
         4        91        93        94        92
         3        95        96        97
         3        98        99       100
         3       101       102       103
         3       104       105       106
         4       107       108       110       109
         3       111       112       113
         3       114       115       116
         4       117       118       119       120
         4       121       123       122       124
         3       125       126       127
         3       128       129       130
         3       131       132       133
         3       134       135       136
         3       137       138       139
         3       140       141       142
         3       143       144       145
         3       146       147       148
         3       149       150       151
         4       152       154       155       153
         3       156       157       158
         4       159       160       162       161
         3       163       164       165
         3       166       167       168
         4       169       170       171       172
         4       173       175       174       176
         3       177       178       179
         3       180       181       182
         3       183       184       185
         4       186       188       189       187
         3       190       191       192
         3       193       194       195

CELL_TYPES 60
   5
   5
   9
   5
   5
   9
   9
   5
   5
   5
   5
   5
   5
   9
   5
   5
   5
   9
   5
   5
   5
   9
   9
   5
   5
   5
   5
   5
   9
   5
   5
   5
   5
   9
   5
   5
   9
   9
   5
   5
   5
   5
   5
   5
   5
   5
   5
   9
   5
   9
   5
   5
   9
   9
   5
   5
   5
   9
   5
   5

CELL_DATA 60
SCALARS domain int
LOOKUP_TABLE default
   1
   2
   1
   2
   1
   2
   1
   2
   1
   1
   2
   2
   1
   2
   2
   2
   1
   1
   2
   2
   1
   2
   1
   2
   2
   2
   2
   1
   2
   1
   1
   1
   2
   1
   2
   1
   2
   1
   2
   2
   2
   2
   1
   2
   2
   2
   1
   2
   2
   1
   2
   1
   2
   1
   2
   2
   1
   2
   2
   2

SCALARS E float
LOOKUP_TABLE default
   1.000e+00
   1.000e+00
   1.000e+00
   1.000e+00
   1.000e+00
   1.000e+00
   1.000e+00
   1.000e+00
   1.000e+00
   1.000e+00
   1.000e+00
   1.000e+00
   1.000e+00
   1.000e+00
   1.000e+00
   1.000e+00
   1.000e+00
   1.000e+00
   1.000e+00
   1.000e+00
   1.000e+00
   1.000e+00
   1.000e+00
   1.000e+00
   1.000e+00
   1.000e+00
   1.000e+00
   1.000e+00
   1.000e+00
   1.000e+00
   1.000e+00
   1.000e+00
   1.000e+00
   1.000e+00
   1.000e+00
   1.000e+00
   1.000e+00
   1.000e+00
   1.000e+00
   1.000e+00
   1.000e+00
   1.000e+00
   1.000e+00
   1.000e+00
   1.000e+00
   1.000e+00
   1.000e+00
   1.000e+00
   1.000e+00
   1.000e+00
   1.000e+00
   1.000e+00
   1.000e+00
   1.000e+00
   1.000e+00
   1.000e+00
   1.000e+00
   1.000e+00
   1.000e+00
   1.000e+00

SCALARS nu float
LOOKUP_TABLE default
   0.000e+00
   0.000e+00
   0.000e+00
   0.000e+00
   0.000e+00
   0.000e+00
   0.000e+00
   0.000e+00
   0.000e+00
   0.000e+00
   0.000e+00
   0.000e+00
   0.000e+00
   0.000e+00
   0.000e+00
   0.000e+00
   0.000e+00
   0.000e+00
   0.000e+00
   0.000e+00
   0.000e+00
   0.000e+00
   0.000e+00
   0.000e+00
   0.000e+00
   0.000e+00
   0.000e+00
   0.000e+00
   0.000e+00
   0.000e+00
   0.000e+00
   0.000e+00
   0.000e+00
   0.000e+00
   0.000e+00
   0.000e+00
   0.000e+00
   0.000e+00
   0.000e+00
   0.000e+00
   0.000e+00
   0.000e+00
   0.000e+00
   0.000e+00
   0.000e+00
   0.000e+00
   0.000e+00
   0.000e+00
   0.000e+00
   0.000e+00
   0.000e+00
   0.000e+00
   0.000e+00
   0.000e+00
   0.000e+00
   0.000e+00
   0.000e+00
   0.000e+00
   0.000e+00
   0.000e+00

SCALARS vonMisesStress float
LOOKUP_TABLE default
   4.545e-01
   4.545e-01
   4.545e-01
   4.545e-01
   4.545e-01
   4.545e-01
   4.545e-01
   4.545e-01
   4.545e-01
   4.545e-01
   4.545e-01
   4.545e-01
   4.545e-01
   4.545e-01
   4.545e-01
   4.545e-01
   4.545e-01
   4.545e-01
   4.545e-01
   4.545e-01
   4.545e-01
   4.545e-01
   4.545e-01
   4.545e-01
   4.545e-01
   4.545e-01
   4.545e-01
   4.545e-01
   4.545e-01
   4.545e-01
   4.545e-01
   4.545e-01
   4.545e-01
   4.545e-01
   4.545e-01
   4.545e-01
   4.545e-01
   4.545e-01
   4.545e-01
   4.545e-01
   4.545e-01
   4.545e-01
   4.545e-01
   4.545e-01
   4.545e-01
   4.545e-01
   4.545e-01
   4.545e-01
   4.545e-01
   4.545e-01
   4.545e-01
   4.545e-01
   4.545e-01
   4.545e-01
   4.545e-01
   4.545e-01
   4.545e-01
   4.545e-01
   4.545e-01
   4.545e-01

TENSORS stress float
   4.545e-01   9.701e-13   0.000e+00
   9.701e-13  -1.079e-12   0.000e+00
   0.000e+00   0.000e+00   0.000e+00

   4.545e-01  -4.520e-13   0.000e+00
  -4.520e-13  -1.060e-12   0.000e+00
   0.000e+00   0.000e+00   0.000e+00

   4.545e-01   9.701e-13   0.000e+00
   9.701e-13  -1.079e-12   0.000e+00
   0.000e+00   0.000e+00   0.000e+00

   4.545e-01  -4.520e-13   0.000e+00
  -4.520e-13  -1.060e-12   0.000e+00
   0.000e+00   0.000e+00   0.000e+00

   4.545e-01   9.701e-13   0.000e+00
   9.701e-13  -1.079e-12   0.000e+00
   0.000e+00   0.000e+00   0.000e+00

   4.545e-01  -4.520e-13   0.000e+00
  -4.520e-13  -1.060e-12   0.000e+00
   0.000e+00   0.000e+00   0.000e+00

   4.545e-01   9.701e-13   0.000e+00
   9.701e-13  -1.079e-12   0.000e+00
   0.000e+00   0.000e+00   0.000e+00

   4.545e-01  -4.520e-13   0.000e+00
  -4.520e-13  -1.060e-12   0.000e+00
   0.000e+00   0.000e+00   0.000e+00

   4.545e-01   9.701e-13   0.000e+00
   9.701e-13  -1.079e-12   0.000e+00
   0.000e+00   0.000e+00   0.000e+00

   4.545e-01   9.701e-13   0.000e+00
   9.701e-13  -1.079e-12   0.000e+00
   0.000e+00   0.000e+00   0.000e+00

   4.545e-01  -4.520e-13   0.000e+00
  -4.520e-13  -1.060e-12   0.000e+00
   0.000e+00   0.000e+00   0.000e+00

   4.545e-01  -4.520e-13   0.000e+00
  -4.520e-13  -1.060e-12   0.000e+00
   0.000e+00   0.000e+00   0.000e+00

   4.545e-01   9.701e-13   0.000e+00
   9.701e-13  -1.079e-12   0.000e+00
   0.000e+00   0.000e+00   0.000e+00

   4.545e-01  -4.520e-13   0.000e+00
  -4.520e-13  -1.060e-12   0.000e+00
   0.000e+00   0.000e+00   0.000e+00

   4.545e-01  -4.520e-13   0.000e+00
  -4.520e-13  -1.060e-12   0.000e+00
   0.000e+00   0.000e+00   0.000e+00

   4.545e-01  -4.520e-13   0.000e+00
  -4.520e-13  -1.060e-12   0.000e+00
   0.000e+00   0.000e+00   0.000e+00

   4.545e-01   9.701e-13   0.000e+00
   9.701e-13  -1.079e-12   0.000e+00
   0.000e+00   0.000e+00   0.000e+00

   4.545e-01   9.701e-13   0.000e+00
   9.701e-13  -1.079e-12   0.000e+00
   0.000e+00   0.000e+00   0.000e+00

   4.545e-01  -4.520e-13   0.000e+00
  -4.520e-13  -1.060e-12   0.000e+00
   0.000e+00   0.000e+00   0.000e+00

   4.545e-01  -4.520e-13   0.000e+00
  -4.520e-13  -1.060e-12   0.000e+00
   0.000e+00   0.000e+00   0.000e+00

   4.545e-01   9.701e-13   0.000e+00
   9.701e-13  -1.079e-12   0.000e+00
   0.000e+00   0.000e+00   0.000e+00

   4.545e-01  -4.520e-13   0.000e+00
  -4.520e-13  -1.060e-12   0.000e+00
   0.000e+00   0.000e+00   0.000e+00

   4.545e-01   9.701e-13   0.000e+00
   9.701e-13  -1.079e-12   0.000e+00
   0.000e+00   0.000e+00   0.000e+00

   4.545e-01  -4.520e-13   0.000e+00
  -4.520e-13  -1.060e-12   0.000e+00
   0.000e+00   0.000e+00   0.000e+00

   4.545e-01  -4.520e-13   0.000e+00
  -4.520e-13  -1.060e-12   0.000e+00
   0.000e+00   0.000e+00   0.000e+00

   4.545e-01  -4.520e-13   0.000e+00
  -4.520e-13  -1.060e-12   0.000e+00
   0.000e+00   0.000e+00   0.000e+00

   4.545e-01  -4.520e-13   0.000e+00
  -4.520e-13  -1.060e-12   0.000e+00
   0.000e+00   0.000e+00   0.000e+00

   4.545e-01   9.701e-13   0.000e+00
   9.701e-13  -1.079e-12   0.000e+00
   0.000e+00   0.000e+00   0.000e+00

   4.545e-01  -4.520e-13   0.000e+00
  -4.520e-13  -1.060e-12   0.000e+00
   0.000e+00   0.000e+00   0.000e+00

   4.545e-01   9.701e-13   0.000e+00
   9.701e-13  -1.079e-12   0.000e+00
   0.000e+00   0.000e+00   0.000e+00

   4.545e-01   9.701e-13   0.000e+00
   9.701e-13  -1.079e-12   0.000e+00
   0.000e+00   0.000e+00   0.000e+00

   4.545e-01   9.701e-13   0.000e+00
   9.701e-13  -1.079e-12   0.000e+00
   0.000e+00   0.000e+00   0.000e+00

   4.545e-01  -4.520e-13   0.000e+00
  -4.520e-13  -1.060e-12   0.000e+00
   0.000e+00   0.000e+00   0.000e+00

   4.545e-01   9.701e-13   0.000e+00
   9.701e-13  -1.079e-12   0.000e+00
   0.000e+00   0.000e+00   0.000e+00

   4.545e-01  -4.520e-13   0.000e+00
  -4.520e-13  -1.060e-12   0.000e+00
   0.000e+00   0.000e+00   0.000e+00

   4.545e-01   9.701e-13   0.000e+00
   9.701e-13  -1.079e-12   0.000e+00
   0.000e+00   0.000e+00   0.000e+00

   4.545e-01  -4.520e-13   0.000e+00
  -4.520e-13  -1.060e-12   0.000e+00
   0.000e+00   0.000e+00   0.000e+00

   4.545e-01   9.701e-13   0.000e+00
   9.701e-13  -1.079e-12   0.000e+00
   0.000e+00   0.000e+00   0.000e+00

   4.545e-01  -4.520e-13   0.000e+00
  -4.520e-13  -1.060e-12   0.000e+00
   0.000e+00   0.000e+00   0.000e+00

   4.545e-01  -3.478e-12   0.000e+00
  -3.478e-12   1.265e-12   0.000e+00
   0.000e+00   0.000e+00   0.000e+00

   4.545e-01  -3.478e-12   0.000e+00
  -3.478e-12   1.265e-12   0.000e+00
   0.000e+00   0.000e+00   0.000e+00

   4.545e-01  -3.478e-12   0.000e+00
  -3.478e-12   1.265e-12   0.000e+00
   0.000e+00   0.000e+00   0.000e+00

   4.545e-01  -1.121e-11   0.000e+00
  -1.121e-11   1.538e-12   0.000e+00
   0.000e+00   0.000e+00   0.000e+00

   4.545e-01  -3.478e-12   0.000e+00
  -3.478e-12   1.265e-12   0.000e+00
   0.000e+00   0.000e+00   0.000e+00

   4.545e-01  -3.478e-12   0.000e+00
  -3.478e-12   1.265e-12   0.000e+00
   0.000e+00   0.000e+00   0.000e+00

   4.545e-01  -3.478e-12   0.000e+00
  -3.478e-12   1.265e-12   0.000e+00
   0.000e+00   0.000e+00   0.000e+00

   4.545e-01  -1.121e-11   0.000e+00
  -1.121e-11   1.538e-12   0.000e+00
   0.000e+00   0.000e+00   0.000e+00

   4.545e-01  -3.478e-12   0.000e+00
  -3.478e-12   1.265e-12   0.000e+00
   0.000e+00   0.000e+00   0.000e+00

   4.545e-01  -3.478e-12   0.000e+00
  -3.478e-12   1.265e-12   0.000e+00
   0.000e+00   0.000e+00   0.000e+00

   4.545e-01  -1.121e-11   0.000e+00
  -1.121e-11   1.538e-12   0.000e+00
   0.000e+00   0.000e+00   0.000e+00

   4.545e-01  -3.478e-12   0.000e+00
  -3.478e-12   1.265e-12   0.000e+00
   0.000e+00   0.000e+00   0.000e+00

   4.545e-01  -1.121e-11   0.000e+00
  -1.121e-11   1.538e-12   0.000e+00
   0.000e+00   0.000e+00   0.000e+00

   4.545e-01  -3.478e-12   0.000e+00
  -3.478e-12   1.265e-12   0.000e+00
   0.000e+00   0.000e+00   0.000e+00

   4.545e-01  -1.121e-11   0.000e+00
  -1.121e-11   1.538e-12   0.000e+00
   0.000e+00   0.000e+00   0.000e+00

   4.545e-01  -3.478e-12   0.000e+00
  -3.478e-12   1.265e-12   0.000e+00
   0.000e+00   0.000e+00   0.000e+00

   4.545e-01  -3.478e-12   0.000e+00
  -3.478e-12   1.265e-12   0.000e+00
   0.000e+00   0.000e+00   0.000e+00

   4.545e-01  -1.121e-11   0.000e+00
  -1.121e-11   1.538e-12   0.000e+00
   0.000e+00   0.000e+00   0.000e+00

   4.545e-01  -3.478e-12   0.000e+00
  -3.478e-12   1.265e-12   0.000e+00
   0.000e+00   0.000e+00   0.000e+00

   4.545e-01  -3.478e-12   0.000e+00
  -3.478e-12   1.265e-12   0.000e+00
   0.000e+00   0.000e+00   0.000e+00

   4.545e-01  -3.478e-12   0.000e+00
  -3.478e-12   1.265e-12   0.000e+00
   0.000e+00   0.000e+00   0.000e+00


POINT_DATA 196
VECTORS displacement float
  -1.009e-12  -6.663e-14   0.000e+00
   2.500e-01   6.307e-14   0.000e+00
  -1.090e-13   5.377e-15   0.000e+00
   5.000e-01   1.927e-14   0.000e+00
   3.750e-01  -2.776e-13   0.000e+00
   3.750e-01  -1.164e-13   0.000e+00
   2.500e-01  -3.375e-13   0.000e+00
   2.500e-01  -1.319e-13   0.000e+00
   3.730e-01  -3.097e-13   0.000e+00
   3.730e-01  -3.047e-13   0.000e+00
   3.730e-01  -2.802e-13   0.000e+00
   3.730e-01  -2.769e-13   0.000e+00
   3.750e-01  -2.776e-13   0.000e+00
   2.500e-01  -1.319e-13   0.000e+00
   3.730e-01  -3.047e-13   0.000e+00
   3.730e-01   1.694e-15   0.000e+00
   3.730e-01  -2.769e-13   0.000e+00
   3.730e-01  -1.209e-13   0.000e+00
   3.750e-01  -1.164e-13   0.000e+00
   3.750e-01  -2.776e-13   0.000e+00
   2.500e-01   6.307e-14   0.000e+00
   3.730e-01   1.694e-15   0.000e+00
   3.730e-01   6.592e-15   0.000e+00
   2.500e-01  -1.319e-13   0.000e+00
   3.730e-01  -1.209e-13   0.000e+00
   3.730e-01  -1.191e-13   0.000e+00
   3.750e-01  -1.164e-13   0.000e+00
   2.500e-01  -3.375e-13   0.000e+00
  -1.090e-13   5.377e-15   0.000e+00
   2.500e-01   6.307e-14   0.000e+00
   1.299e-13   3.514e-14   0.000e+00
  -1.090e-13   5.377e-15   0.000e+00
   2.500e-01  -3.375e-13   0.000e+00
   1.000e+00  -1.349e-13   0.000e+00
   5.000e-01  -2.023e-12   0.000e+00
   5.000e-01   1.927e-14   0.000e+00
   5.000e-01  -2.023e-12   0.000e+00
   3.750e-01  -1.316e-12   0.000e+00
   5.000e-01  -1.374e-12   0.000e+00
   2.500e-01  -7.803e-13   0.000e+00
   3.730e-01  -9.643e-13   0.000e+00
   3.730e-01  -1.302e-12   0.000e+00
   3.730e-01  -8.764e-13   0.000e+00
   3.730e-01  -1.306e-12   0.000e+00
   3.750e-01  -8.776e-13   0.000e+00
   3.750e-01  -1.316e-12   0.000e+00
   3.750e-01  -8.776e-13   0.000e+00
   5.000e-01  -1.374e-12   0.000e+00
   3.750e-01  -1.316e-12   0.000e+00
   5.000e-01  -8.167e-13   0.000e+00
   5.000e-01  -1.374e-12   0.000e+00
   3.750e-01  -8.776e-13   0.000e+00
   1.299e-13   3.514e-14   0.000e+00
   2.500e-01  -3.375e-13   0.000e+00
   2.500e-01  -7.803e-13   0.000e+00
   2.500e-01  -3.375e-13   0.000e+00
   3.730e-01  -6.265e-13   0.000e+00
   3.730e-01  -6.317e-13   0.000e+00
   2.500e-01  -5.536e-13   0.000e+00
   3.730e-01  -5.273e-13   0.000e+00
   3.730e-01  -5.320e-13   0.000e+00
   3.750e-01  -5.313e-13   0.000e+00
   5.000e-01  -8.167e-13   0.000e+00
   3.750e-01  -8.776e-13   0.000e+00
   3.750e-01  -5.313e-13   0.000e+00
   3.730e-01  -6.317e-13   0.000e+00
   3.730e-01  -9.589e-13   0.000e+00
   2.500e-01  -5.536e-13   0.000e+00
   3.750e-01  -8.776e-13   0.000e+00
   3.730e-01  -5.320e-13   0.000e+00
   3.730e-01  -8.702e-13   0.000e+00
   3.750e-01  -5.313e-13   0.000e+00
   2.500e-01  -7.803e-13   0.000e+00
   2.500e-01  -5.536e-13   0.000e+00
   3.730e-01  -9.589e-13   0.000e+00
   3.730e-01  -9.643e-13   0.000e+00
   3.730e-01  -8.702e-13   0.000e+00
   3.730e-01  -8.764e-13   0.000e+00
   3.750e-01  -8.776e-13   0.000e+00
   5.000e-01   1.927e-14   0.000e+00
   5.000e-01  -3.525e-13   0.000e+00
   3.750e-01  -2.776e-13   0.000e+00
   5.000e-01  -8.167e-13   0.000e+00
   3.750e-01  -5.313e-13   0.000e+00
   5.000e-01  -3.525e-13   0.000e+00
   3.750e-01  -5.313e-13   0.000e+00
   3.750e-01  -2.776e-13   0.000e+00
   5.000e-01  -3.525e-13   0.000e+00
   2.500e-01  -3.375e-13   0.000e+00
   3.730e-01  -3.097e-13   0.000e+00
   3.730e-01  -6.265e-13   0.000e+00
   3.730e-01  -2.802e-13   0.000e+00
   3.730e-01  -5.273e-13   0.000e+00
   3.750e-01  -2.776e-13   0.000e+00
   3.750e-01  -5.313e-13   0.000e+00
  -1.375e-12  -3.210e-14   0.000e+00
  -2.920e-13   2.265e-14   0.000e+00
   2.500e-01  -1.265e-12   0.000e+00
   1.299e-13   3.514e-14   0.000e+00
   2.500e-01  -7.803e-13   0.000e+00
  -2.920e-13   2.265e-14   0.000e+00
   2.500e-01  -7.803e-13   0.000e+00
   2.500e-01  -1.265e-12   0.000e+00
  -2.920e-13   2.265e-14   0.000e+00
   5.000e-01  -2.023e-12   0.000e+00
   3.750e-01  -1.848e-12   0.000e+00
   3.750e-01  -1.316e-12   0.000e+00
   2.500e-01  -1.265e-12   0.000e+00
   2.500e-01  -1.018e-12   0.000e+00
   3.730e-01  -1.661e-12   0.000e+00
   3.730e-01  -1.655e-12   0.000e+00
   3.730e-01  -1.843e-12   0.000e+00
   3.730e-01  -1.834e-12   0.000e+00
   3.750e-01  -1.848e-12   0.000e+00
   2.500e-01  -1.018e-12   0.000e+00
   3.730e-01  -1.655e-12   0.000e+00
   3.730e-01  -1.307e-12   0.000e+00
   3.730e-01  -1.834e-12   0.000e+00
   3.730e-01  -1.313e-12   0.000e+00
   3.750e-01  -1.316e-12   0.000e+00
   3.750e-01  -1.848e-12   0.000e+00
   2.500e-01  -7.803e-13   0.000e+00
   3.730e-01  -1.307e-12   0.000e+00
   3.730e-01  -1.302e-12   0.000e+00
   2.500e-01  -1.018e-12   0.000e+00
   3.730e-01  -1.313e-12   0.000e+00
   3.730e-01  -1.306e-12   0.000e+00
   3.750e-01  -1.316e-12   0.000e+00
   1.000e+00  -1.349e-13   0.000e+00
   1.000e+00   5.150e-14   0.000e+00
   5.000e-01  -2.023e-12   0.000e+00
   1.000e+00  -1.300e-14   0.000e+00
   5.000e-01   3.462e-14   0.000e+00
   1.000e+00   5.150e-14   0.000e+00
   5.000e-01   3.462e-14   0.000e+00
   5.000e-01  -2.023e-12   0.000e+00
   1.000e+00   5.150e-14   0.000e+00
  -1.375e-12  -3.210e-14   0.000e+00
   2.500e-01  -1.265e-12   0.000e+00
   2.500e-01   7.142e-15   0.000e+00
   5.000e-01  -2.023e-12   0.000e+00
   5.000e-01  -1.485e-12   0.000e+00
   3.750e-01  -1.848e-12   0.000e+00
   5.000e-01  -9.628e-13   0.000e+00
   3.750e-01  -1.193e-12   0.000e+00
   5.000e-01  -1.485e-12   0.000e+00
   3.750e-01  -1.193e-12   0.000e+00
   3.750e-01  -1.848e-12   0.000e+00
   5.000e-01  -1.485e-12   0.000e+00
   2.500e-01  -1.265e-12   0.000e+00
   3.730e-01  -1.661e-12   0.000e+00
   3.730e-01  -1.199e-12   0.000e+00
   3.730e-01  -1.843e-12   0.000e+00
   3.730e-01  -1.197e-12   0.000e+00
   3.750e-01  -1.848e-12   0.000e+00
   3.750e-01  -1.193e-12   0.000e+00
   5.000e-01  -9.628e-13   0.000e+00
   3.750e-01  -5.537e-13   0.000e+00
   3.750e-01  -1.193e-12   0.000e+00
   2.500e-01   7.142e-15   0.000e+00
   2.500e-01  -6.809e-13   0.000e+00
   3.730e-01  -6.164e-13   0.000e+00
   3.730e-01  -6.264e-13   0.000e+00
   3.730e-01  -5.451e-13   0.000e+00
   3.730e-01  -5.552e-13   0.000e+00
   3.750e-01  -5.537e-13   0.000e+00
   2.500e-01  -6.809e-13   0.000e+00
   3.730e-01  -6.264e-13   0.000e+00
   3.730e-01  -1.191e-12   0.000e+00
   3.730e-01  -5.552e-13   0.000e+00
   3.730e-01  -1.186e-12   0.000e+00
   3.750e-01  -1.193e-12   0.000e+00
   3.750e-01  -5.537e-13   0.000e+00
   2.500e-01  -1.265e-12   0.000e+00
   3.730e-01  -1.191e-12   0.000e+00
   3.730e-01  -1.199e-12   0.000e+00
   2.500e-01  -6.809e-13   0.000e+00
   3.730e-01  -1.186e-12   0.000e+00
   3.730e-01  -1.197e-12   0.000e+00
   3.750e-01  -1.193e-12   0.000e+00
   5.000e-01   3.462e-14   0.000e+00
   3.750e-01   6.977e-14   0.000e+00
   5.000e-01  -4.563e-13   0.000e+00
   2.500e-01   7.142e-15   0.000e+00
   3.730e-01  -6.164e-13   0.000e+00
   3.730e-01   4.971e-14   0.000e+00
   3.730e-01  -5.451e-13   0.000e+00
   3.730e-01   7.041e-14   0.000e+00
   3.750e-01  -5.537e-13   0.000e+00
   3.750e-01   6.977e-14   0.000e+00
   3.750e-01  -5.537e-13   0.000e+00
   5.000e-01  -4.563e-13   0.000e+00
   3.750e-01   6.977e-14   0.000e+00
   5.000e-01  -9.628e-13   0.000e+00
   5.000e-01  -4.563e-13   0.000e+00
   3.750e-01  -5.537e-13   0.000e+00
