# vtk DataFile Version 2.0
Bulk mesh generated by generateVTK.m
ASCII
DATASET UNSTRUCTURED_GRID

POINTS 1532 float
   2.947e+00   5.621e-01   0.000e+00
   2.714e+00   1.277e+00   0.000e+00
   2.427e+00   1.763e+00   0.000e+00
   2.054e+00   2.187e+00   0.000e+00
   1.445e+00   2.629e+00   0.000e+00
   9.271e-01   2.853e+00   0.000e+00
   3.760e-01   2.976e+00   0.000e+00
  -3.760e-01   2.976e+00   0.000e+00
  -9.271e-01   2.853e+00   0.000e+00
  -1.445e+00   2.629e+00   0.000e+00
  -2.054e+00   2.187e+00   0.000e+00
  -2.427e+00   1.763e+00   0.000e+00
  -2.714e+00   1.277e+00   0.000e+00
  -2.947e+00   5.621e-01   0.000e+00
  -3.000e+00   0.000e+00   0.000e+00
  -2.947e+00  -5.621e-01   0.000e+00
  -2.714e+00  -1.277e+00   0.000e+00
  -2.427e+00  -1.763e+00   0.000e+00
  -2.054e+00  -2.187e+00   0.000e+00
  -1.445e+00  -2.629e+00   0.000e+00
  -9.271e-01  -2.853e+00   0.000e+00
  -3.760e-01  -2.976e+00   0.000e+00
   3.760e-01  -2.976e+00   0.000e+00
   9.271e-01  -2.853e+00   0.000e+00
   1.445e+00  -2.629e+00   0.000e+00
   2.054e+00  -2.187e+00   0.000e+00
   2.427e+00  -1.763e+00   0.000e+00
   2.714e+00  -1.277e+00   0.000e+00
   2.947e+00  -5.621e-01   0.000e+00
   3.000e+00   0.000e+00   0.000e+00
   2.994e+00   1.884e-01   0.000e+00
   2.976e+00   3.760e-01   0.000e+00
   2.906e+00   7.461e-01   0.000e+00
   2.853e+00   9.271e-01   0.000e+00
   2.789e+00   1.104e+00   0.000e+00
   2.629e+00   1.445e+00   0.000e+00
   2.533e+00   1.607e+00   0.000e+00
   2.312e+00   1.912e+00   0.000e+00
   2.187e+00   2.054e+00   0.000e+00
   1.912e+00   2.312e+00   0.000e+00
   1.763e+00   2.427e+00   0.000e+00
   1.607e+00   2.533e+00   0.000e+00
   1.277e+00   2.714e+00   0.000e+00
   1.104e+00   2.789e+00   0.000e+00
   7.461e-01   2.906e+00   0.000e+00
   5.621e-01   2.947e+00   0.000e+00
   1.884e-01   2.994e+00   0.000e+00
   0.000e+00   3.000e+00   0.000e+00
  -1.884e-01   2.994e+00   0.000e+00
  -5.621e-01   2.947e+00   0.000e+00
  -7.461e-01   2.906e+00   0.000e+00
  -1.104e+00   2.789e+00   0.000e+00
  -1.277e+00   2.714e+00   0.000e+00
  -1.607e+00   2.533e+00   0.000e+00
  -1.763e+00   2.427e+00   0.000e+00
  -1.912e+00   2.312e+00   0.000e+00
  -2.187e+00   2.054e+00   0.000e+00
  -2.312e+00   1.912e+00   0.000e+00
  -2.533e+00   1.607e+00   0.000e+00
  -2.629e+00   1.445e+00   0.000e+00
  -2.789e+00   1.104e+00   0.000e+00
  -2.853e+00   9.271e-01   0.000e+00
  -2.906e+00   7.461e-01   0.000e+00
  -2.976e+00   3.760e-01   0.000e+00
  -2.994e+00   1.884e-01   0.000e+00
  -2.994e+00  -1.884e-01   0.000e+00
  -2.976e+00  -3.760e-01   0.000e+00
  -2.906e+00  -7.461e-01   0.000e+00
  -2.853e+00  -9.271e-01   0.000e+00
  -2.789e+00  -1.104e+00   0.000e+00
  -2.629e+00  -1.445e+00   0.000e+00
  -2.533e+00  -1.607e+00   0.000e+00
  -2.312e+00  -1.912e+00   0.000e+00
  -2.187e+00  -2.054e+00   0.000e+00
  -1.912e+00  -2.312e+00   0.000e+00
  -1.763e+00  -2.427e+00   0.000e+00
  -1.607e+00  -2.533e+00   0.000e+00
  -1.277e+00  -2.714e+00   0.000e+00
  -1.104e+00  -2.789e+00   0.000e+00
  -7.461e-01  -2.906e+00   0.000e+00
  -5.621e-01  -2.947e+00   0.000e+00
  -1.884e-01  -2.994e+00   0.000e+00
   0.000e+00  -3.000e+00   0.000e+00
   1.884e-01  -2.994e+00   0.000e+00
   5.621e-01  -2.947e+00   0.000e+00
   7.461e-01  -2.906e+00   0.000e+00
   1.104e+00  -2.789e+00   0.000e+00
   1.277e+00  -2.714e+00   0.000e+00
   1.607e+00  -2.533e+00   0.000e+00
   1.763e+00  -2.427e+00   0.000e+00
   1.912e+00  -2.312e+00   0.000e+00
   2.187e+00  -2.054e+00   0.000e+00
   2.312e+00  -1.912e+00   0.000e+00
   2.533e+00  -1.607e+00   0.000e+00
   2.629e+00  -1.445e+00   0.000e+00
   2.789e+00  -1.104e+00   0.000e+00
   2.853e+00  -9.271e-01   0.000e+00
   2.906e+00  -7.461e-01   0.000e+00
   2.976e+00  -3.760e-01   0.000e+00
   2.994e+00  -1.884e-01   0.000e+00
  -1.431e+00   2.452e+00   0.000e+00
  -1.990e+00   2.020e+00   0.000e+00
  -2.341e+00   1.605e+00   0.000e+00
  -2.599e+00   1.148e+00   0.000e+00
  -2.796e+00   4.538e-01   0.000e+00
  -2.840e+00  -7.486e-02   0.000e+00
  -2.776e+00  -5.983e-01   0.000e+00
  -2.536e+00  -1.267e+00   0.000e+00
  -2.254e+00  -1.727e+00   0.000e+00
  -1.897e+00  -2.111e+00   0.000e+00
   2.770e+00   5.915e-01   0.000e+00
   2.529e+00   1.277e+00   0.000e+00
   2.260e+00   1.727e+00   0.000e+00
   1.891e+00   2.107e+00   0.000e+00
   1.308e+00   2.522e+00   0.000e+00
   9.539e-01  -2.677e+00   0.000e+00
   1.427e+00  -2.457e+00   0.000e+00
   1.994e+00  -2.009e+00   0.000e+00
   2.341e+00  -1.594e+00   0.000e+00
   2.599e+00  -1.145e+00   0.000e+00
   2.797e+00  -4.536e-01   0.000e+00
   2.843e+00   6.916e-02   0.000e+00
   2.825e+00   2.663e-01   0.000e+00
   2.830e+00   4.366e-01   0.000e+00
   2.718e+00   7.820e-01   0.000e+00
   2.659e+00   9.712e-01   0.000e+00
   2.626e+00   1.136e+00   0.000e+00
   2.440e+00   1.458e+00   0.000e+00
   2.379e+00   1.614e+00   0.000e+00
   2.128e+00   1.876e+00   0.000e+00
   2.032e+00   2.017e+00   0.000e+00
   1.735e+00   2.234e+00   0.000e+00
   1.581e+00   2.359e+00   0.000e+00
   1.463e+00   2.472e+00   0.000e+00
   1.132e+00   2.595e+00   0.000e+00
   9.567e-01   2.660e+00   0.000e+00
   3.517e-01   2.827e+00   0.000e+00
   1.149e-01   2.828e+00   0.000e+00
  -8.242e-02   2.827e+00   0.000e+00
  -2.682e-01   2.817e+00   0.000e+00
  -6.238e-01   2.762e+00   0.000e+00
  -7.973e-01   2.720e+00   0.000e+00
  -1.143e+00   2.592e+00   0.000e+00
  -1.304e+00   2.555e+00   0.000e+00
  -1.592e+00   2.345e+00   0.000e+00
  -1.753e+00   2.238e+00   0.000e+00
  -1.896e+00   2.158e+00   0.000e+00
  -2.129e+00   1.867e+00   0.000e+00
  -2.265e+00   1.757e+00   0.000e+00
  -2.452e+00   1.435e+00   0.000e+00
  -2.559e+00   1.306e+00   0.000e+00
  -2.662e+00   9.650e-01   0.000e+00
  -2.723e+00   7.779e-01   0.000e+00
  -2.792e+00   6.245e-01   0.000e+00
  -2.828e+00   2.533e-01   0.000e+00
  -2.871e+00   9.069e-02   0.000e+00
  -2.827e+00  -2.756e-01   0.000e+00
  -2.837e+00  -4.442e-01   0.000e+00
  -2.723e+00  -7.868e-01   0.000e+00
  -2.671e+00  -9.731e-01   0.000e+00
  -2.639e+00  -1.134e+00   0.000e+00
  -2.436e+00  -1.447e+00   0.000e+00
  -2.375e+00  -1.610e+00   0.000e+00
  -2.127e+00  -1.883e+00   0.000e+00
  -2.036e+00  -2.025e+00   0.000e+00
  -8.961e-02  -2.828e+00   0.000e+00
   8.971e-02  -2.827e+00   0.000e+00
   2.712e-01  -2.815e+00   0.000e+00
   6.447e-01  -2.765e+00   0.000e+00
   8.070e-01  -2.756e+00   0.000e+00
   1.140e+00  -2.604e+00   0.000e+00
   1.301e+00  -2.562e+00   0.000e+00
   1.586e+00  -2.345e+00   0.000e+00
   1.746e+00  -2.230e+00   0.000e+00
   1.892e+00  -2.146e+00   0.000e+00
   2.134e+00  -1.858e+00   0.000e+00
   2.264e+00  -1.748e+00   0.000e+00
   2.454e+00  -1.428e+00   0.000e+00
   2.560e+00  -1.303e+00   0.000e+00
   2.662e+00  -9.637e-01   0.000e+00
   2.723e+00  -7.772e-01   0.000e+00
   2.793e+00  -6.241e-01   0.000e+00
   2.831e+00  -2.540e-01   0.000e+00
   2.874e+00  -9.257e-02   0.000e+00
  -2.067e+00  -1.690e+00   0.000e+00
  -1.123e+00  -2.595e+00   0.000e+00
  -6.171e-01  -2.760e+00   0.000e+00
   9.868e-01  -2.484e+00   0.000e+00
   2.589e+00   6.276e-01   0.000e+00
   2.330e+00   1.295e+00   0.000e+00
   1.712e+00   2.030e+00   0.000e+00
   7.752e-01   2.715e+00   0.000e+00
   5.809e-01   2.766e+00   0.000e+00
  -4.482e-01   2.795e+00   0.000e+00
  -1.417e+00   2.261e+00   0.000e+00
  -1.903e+00   1.815e+00   0.000e+00
  -2.254e+00   1.420e+00   0.000e+00
  -2.477e+00   1.016e+00   0.000e+00
  -2.641e+00   3.268e-01   0.000e+00
  -2.661e+00  -1.552e-01   0.000e+00
  -2.592e+00  -6.359e-01   0.000e+00
  -2.321e+00  -1.248e+00   0.000e+00
  -1.593e+00  -2.336e+00   0.000e+00
  -1.440e+00  -2.433e+00   0.000e+00
  -1.284e+00  -2.519e+00   0.000e+00
  -9.578e-01  -2.660e+00   0.000e+00
  -7.888e-01  -2.715e+00   0.000e+00
  -4.428e-01  -2.794e+00   0.000e+00
  -2.665e-01  -2.817e+00   0.000e+00
   1.403e+00  -2.277e+00   0.000e+00
   1.936e+00  -1.809e+00   0.000e+00
   2.476e+00  -1.012e+00   0.000e+00
   2.646e+00  -3.217e-01   0.000e+00
   2.084e+00   1.683e+00   0.000e+00
   2.260e+00  -1.404e+00   0.000e+00
  -1.745e+00  -2.226e+00   0.000e+00
   2.675e+00   1.366e-01   0.000e+00
   2.633e+00   3.848e-01   0.000e+00
   2.532e+00   8.215e-01   0.000e+00
   2.436e+00   1.051e+00   0.000e+00
   2.240e+00   1.517e+00   0.000e+00
   1.901e+00   1.856e+00   0.000e+00
   1.548e+00   2.168e+00   0.000e+00
   1.373e+00   2.318e+00   0.000e+00
   1.165e+00   2.402e+00   0.000e+00
   9.900e-01   2.478e+00   0.000e+00
   2.169e-01   2.651e+00   0.000e+00
   1.614e-02   2.658e+00   0.000e+00
  -1.735e-01   2.657e+00   0.000e+00
  -9.655e-01   2.660e+00   0.000e+00
  -6.829e-01   2.585e+00   0.000e+00
  -1.224e+00   2.385e+00   0.000e+00
  -1.591e+00   2.158e+00   0.000e+00
  -1.771e+00   2.035e+00   0.000e+00
  -2.116e+00   1.636e+00   0.000e+00
  -2.403e+00   1.227e+00   0.000e+00
  -2.535e+00   8.251e-01   0.000e+00
  -2.588e+00   5.833e-01   0.000e+00
  -2.691e+00   8.829e-02   0.000e+00
  -2.656e+00  -4.058e-01   0.000e+00
  -2.544e+00  -8.369e-01   0.000e+00
  -2.483e+00  -1.050e+00   0.000e+00
  -2.226e+00  -1.503e+00   0.000e+00
  -1.919e+00  -1.887e+00   0.000e+00
   4.564e-01  -2.793e+00   0.000e+00
   1.063e-03  -2.664e+00   0.000e+00
   1.737e-01  -2.657e+00   0.000e+00
   7.655e-01  -2.582e+00   0.000e+00
   1.216e+00  -2.407e+00   0.000e+00
   1.565e+00  -2.157e+00   0.000e+00
   1.750e+00  -1.993e+00   0.000e+00
   2.104e+00  -1.610e+00   0.000e+00
   2.404e+00  -1.220e+00   0.000e+00
   2.535e+00  -8.234e-01   0.000e+00
   2.589e+00  -5.811e-01   0.000e+00
   2.704e+00  -8.926e-02   0.000e+00
  -2.491e+00   1.905e-01   0.000e+00
  -2.450e+00  -2.435e-01   0.000e+00
   2.438e+00   6.758e-01   0.000e+00
  -5.145e-01   2.625e+00   0.000e+00
  -6.615e-01  -2.577e+00   0.000e+00
  -1.867e+00  -1.654e+00   0.000e+00
   1.397e+00  -2.116e+00   0.000e+00
   1.875e+00  -1.622e+00   0.000e+00
   1.231e+00  -2.189e+00   0.000e+00
  -1.732e+00  -2.023e+00   0.000e+00
  -2.022e+00   1.388e+00   0.000e+00
   2.127e+00   1.338e+00   0.000e+00
   1.011e+00   2.300e+00   0.000e+00
   1.185e+00   2.206e+00   0.000e+00
   1.361e+00   2.095e+00   0.000e+00
  -9.803e-01   2.444e+00   0.000e+00
  -8.217e-01  -2.529e+00   0.000e+00
   5.385e-01  -2.613e+00   0.000e+00
  -1.430e+00  -2.242e+00   0.000e+00
  -3.308e-01  -2.642e+00   0.000e+00
  -2.298e+00   1.044e+00   0.000e+00
   1.522e+00   1.969e+00   0.000e+00
  -1.431e+00   2.066e+00   0.000e+00
  -1.883e+00   1.585e+00   0.000e+00
  -2.379e+00   8.927e-01   0.000e+00
  -2.188e+00   1.216e+00   0.000e+00
  -2.498e+00  -1.531e-02   0.000e+00
  -2.442e+00  -4.873e-01   0.000e+00
  -2.408e+00  -7.018e-01   0.000e+00
  -2.117e+00  -1.312e+00   0.000e+00
  -1.578e+00  -2.140e+00   0.000e+00
  -1.133e+00  -2.406e+00   0.000e+00
  -9.788e-01  -2.472e+00   0.000e+00
  -4.972e-01  -2.613e+00   0.000e+00
  -1.644e-01  -2.663e+00   0.000e+00
   1.030e+00  -2.280e+00   0.000e+00
   2.377e+00  -8.889e-01   0.000e+00
   2.497e+00   1.786e-01   0.000e+00
   1.917e+00   1.608e+00   0.000e+00
   2.067e+00  -1.366e+00   0.000e+00
   2.507e+00  -1.669e-01   0.000e+00
   2.448e+00   5.061e-01   0.000e+00
   2.250e+00   9.575e-01   0.000e+00
   1.668e+00   1.833e+00   0.000e+00
   8.165e-01   2.528e+00   0.000e+00
   6.267e-01   2.571e+00   0.000e+00
   4.237e-01   2.620e+00   0.000e+00
  -3.494e-01   2.650e+00   0.000e+00
   1.025e-01   2.490e+00   0.000e+00
  -8.848e-02   2.491e+00   0.000e+00
  -8.372e-01   2.561e+00   0.000e+00
  -1.244e+00   2.154e+00   0.000e+00
  -1.674e+00   1.854e+00   0.000e+00
  -2.383e+00   5.494e-01   0.000e+00
  -2.281e+00  -1.019e+00   0.000e+00
  -2.011e+00  -1.488e+00   0.000e+00
  -1.282e+00  -2.329e+00   0.000e+00
   3.497e-01  -2.644e+00   0.000e+00
   8.416e-02  -2.477e+00   0.000e+00
   8.202e-01  -2.360e+00   0.000e+00
   1.608e+00  -1.847e+00   0.000e+00
   2.296e+00  -1.037e+00   0.000e+00
   2.384e+00  -5.488e-01   0.000e+00
  -2.278e+00  -3.714e-01   0.000e+00
   1.014e+00   2.115e+00   0.000e+00
   1.281e+00  -1.973e+00   0.000e+00
   2.555e+00   1.147e-02   0.000e+00
   2.062e+00   1.510e+00   0.000e+00
   8.701e-01   2.378e+00   0.000e+00
  -5.439e-01  -2.438e+00   0.000e+00
  -1.710e+00  -1.814e+00   0.000e+00
  -1.589e+00   1.999e+00   0.000e+00
  -2.012e+00   1.163e+00   0.000e+00
  -2.327e+00  -6.546e-02   0.000e+00
  -2.166e+00  -1.146e+00   0.000e+00
  -3.848e-01  -2.468e+00   0.000e+00
   2.438e+00   3.369e-01   0.000e+00
   1.768e+00   1.692e+00   0.000e+00
   2.194e+00  -1.207e+00   0.000e+00
   2.203e+00   1.133e+00   0.000e+00
  -5.642e-01   2.456e+00   0.000e+00
   1.186e-03   2.305e+00   0.000e+00
  -1.744e+00   1.699e+00   0.000e+00
  -2.448e+00   3.917e-01   0.000e+00
  -1.562e+00  -1.951e+00   0.000e+00
   1.746e+00  -1.761e+00   0.000e+00
   2.448e+00  -3.785e-01   0.000e+00
  -4.213e-01   2.515e+00   0.000e+00
  -1.278e+00  -2.143e+00   0.000e+00
  -2.388e+00  -8.819e-01   0.000e+00
   1.183e+00   2.009e+00   0.000e+00
   1.344e+00   1.899e+00   0.000e+00
  -7.582e-01   2.404e+00   0.000e+00
  -6.953e-01  -2.399e+00   0.000e+00
   4.107e-01  -2.469e+00   0.000e+00
  -1.424e+00  -2.056e+00   0.000e+00
  -1.134e+00  -2.221e+00   0.000e+00
  -2.205e-01  -2.495e+00   0.000e+00
  -1.809e+00   1.408e+00   0.000e+00
  -2.382e+00   7.204e-01   0.000e+00
  -2.205e+00   8.626e-01   0.000e+00
  -2.255e+00  -5.769e-01   0.000e+00
  -9.894e-01  -2.290e+00   0.000e+00
  -8.427e-01  -2.349e+00   0.000e+00
  -7.750e-02  -2.529e+00   0.000e+00
   1.063e+00  -2.074e+00   0.000e+00
   1.945e+00  -1.478e+00   0.000e+00
   2.274e+00   6.054e-01   0.000e+00
   2.350e+00   8.190e-01   0.000e+00
   1.490e+00   1.786e+00   0.000e+00
   4.755e-01   2.427e+00   0.000e+00
   2.873e-01   2.474e+00   0.000e+00
  -2.740e-01   2.499e+00   0.000e+00
  -1.048e+00   2.234e+00   0.000e+00
  -1.270e+00   1.936e+00   0.000e+00
  -1.830e+00  -1.445e+00   0.000e+00
   2.542e-01  -2.517e+00   0.000e+00
   6.106e-01  -2.422e+00   0.000e+00
   8.637e-01  -2.158e+00   0.000e+00
   1.507e+00  -1.983e+00   0.000e+00
   2.203e+00  -8.534e-01   0.000e+00
   2.386e+00  -7.206e-01   0.000e+00
   8.501e-01   2.221e+00   0.000e+00
  -2.204e+00   6.143e-01   0.000e+00
   2.089e+00   9.818e-01   0.000e+00
  -2.143e+00   1.050e+00   0.000e+00
  -2.269e+00  -2.086e-01   0.000e+00
  -2.105e+00  -4.540e-01   0.000e+00
   1.787e+00  -1.471e+00   0.000e+00
  -6.020e-01   2.282e+00   0.000e+00
   8.930e-01  -1.962e+00   0.000e+00
   2.012e+00  -1.171e+00   0.000e+00
   1.175e+00   1.817e+00   0.000e+00
  -1.288e+00  -1.955e+00   0.000e+00
  -1.881e+00   1.261e+00   0.000e+00
  -1.697e+00   1.548e+00   0.000e+00
  -2.012e+00  -1.167e+00   0.000e+00
  -2.219e+00  -8.077e-01   0.000e+00
  -2.100e+00  -9.948e-01   0.000e+00
  -8.534e-01  -2.180e+00   0.000e+00
   6.645e-01  -2.225e+00   0.000e+00
   2.294e+00   2.115e-01   0.000e+00
   2.266e+00  -4.346e-01   0.000e+00
   1.937e+00   1.404e+00   0.000e+00
   6.879e-01   2.357e+00   0.000e+00
  -1.479e+00   1.882e+00   0.000e+00
  -1.674e+00  -1.603e+00   0.000e+00
   1.742e+00   1.504e+00   0.000e+00
   1.586e+00  -1.690e+00   0.000e+00
   2.391e+00   1.647e-03   0.000e+00
  -1.136e+00  -2.037e+00   0.000e+00
  -2.365e+00   8.887e-02   0.000e+00
  -1.961e+00  -1.329e+00   0.000e+00
  -4.399e-01  -2.304e+00   0.000e+00
   2.318e+00   4.111e-01   0.000e+00
   2.135e+00  -1.044e+00   0.000e+00
   1.982e+00   1.176e+00   0.000e+00
  -4.063e-01   2.350e+00   0.000e+00
  -2.061e-01   2.337e+00   0.000e+00
  -2.293e+00   2.567e-01   0.000e+00
  -5.827e-01  -2.281e+00   0.000e+00
   2.292e+00  -2.143e-01   0.000e+00
  -9.931e-01  -2.116e+00   0.000e+00
   1.011e+00   1.924e+00   0.000e+00
   1.612e+00   1.660e+00   0.000e+00
  -8.836e-01   2.283e+00   0.000e+00
   2.537e-01  -2.336e+00   0.000e+00
  -2.799e-01  -2.326e+00   0.000e+00
  -2.289e+00   4.422e-01   0.000e+00
  -7.160e-01  -2.237e+00   0.000e+00
  -8.972e-02  -2.347e+00   0.000e+00
   1.077e+00  -1.870e+00   0.000e+00
   2.169e+00   8.035e-01   0.000e+00
   1.331e+00   1.713e+00   0.000e+00
   3.245e-01   2.301e+00   0.000e+00
   1.772e-01   2.354e+00   0.000e+00
  -1.081e+00   2.035e+00   0.000e+00
  -1.557e+00   1.687e+00   0.000e+00
  -1.530e+00  -1.764e+00   0.000e+00
  -1.428e+00  -1.895e+00   0.000e+00
   4.640e-01  -2.281e+00   0.000e+00
   1.441e+00  -1.812e+00   0.000e+00
   2.229e+00  -6.278e-01   0.000e+00
  -1.727e+00   1.254e+00   0.000e+00
   6.769e-01   2.135e+00   0.000e+00
  -2.067e+00  -6.550e-01   0.000e+00
  -3.588e-01  -2.163e+00   0.000e+00
  -1.151e+00  -1.846e+00   0.000e+00
   1.717e+00  -1.607e+00   0.000e+00
   8.446e-01   2.028e+00   0.000e+00
  -2.011e+00   9.639e-01   0.000e+00
  -1.633e+00  -1.370e+00   0.000e+00
  -9.858e-01  -1.938e+00   0.000e+00
   7.799e-02  -2.293e+00   0.000e+00
   1.890e+00  -1.322e+00   0.000e+00
   1.006e+00   1.731e+00   0.000e+00
  -7.202e-01  -2.073e+00   0.000e+00
   7.072e-01  -2.033e+00   0.000e+00
   2.092e+00  -4.999e-01   0.000e+00
  -2.026e+00   7.557e-01   0.000e+00
   1.985e+00   8.292e-01   0.000e+00
  -2.128e+00  -2.698e-01   0.000e+00
   9.038e-01  -1.771e+00   0.000e+00
  -4.669e-01   2.158e+00   0.000e+00
  -7.557e-01   2.236e+00   0.000e+00
   1.252e+00  -1.753e+00   0.000e+00
  -1.831e+00   1.083e+00   0.000e+00
  -1.834e+00  -1.238e+00   0.000e+00
  -1.887e+00  -9.984e-01   0.000e+00
  -2.027e+00  -8.386e-01   0.000e+00
  -2.159e+00  -9.481e-02   0.000e+00
   1.465e+00   1.635e+00   0.000e+00
   1.929e+00   9.940e-01   0.000e+00
   2.195e+00  -3.503e-03   0.000e+00
  -2.215e+00   7.440e-02   0.000e+00
  -4.991e-01  -2.177e+00   0.000e+00
  -1.962e-01  -2.192e+00   0.000e+00
   2.135e+00   4.006e-01   0.000e+00
   1.970e+00  -9.473e-01   0.000e+00
   1.784e+00   1.288e+00   0.000e+00
  -1.593e-01   2.166e+00   0.000e+00
  -2.115e+00   3.991e-01   0.000e+00
  -6.056e-01  -2.152e+00   0.000e+00
   2.142e+00  -3.335e-01   0.000e+00
  -8.653e-01  -2.031e+00   0.000e+00
   3.249e-01  -2.138e+00   0.000e+00
   2.060e+00   6.315e-01   0.000e+00
   1.545e+00   1.503e+00   0.000e+00
   1.171e+00   1.623e+00   0.000e+00
   1.695e-01   2.200e+00   0.000e+00
  -1.106e+00   1.876e+00   0.000e+00
  -8.736e-01   2.104e+00   0.000e+00
  -1.547e+00   1.514e+00   0.000e+00
  -1.354e+00   1.748e+00   0.000e+00
  -1.485e+00  -1.573e+00   0.000e+00
  -1.339e+00  -1.749e+00   0.000e+00
   5.173e-01  -2.089e+00   0.000e+00
   1.412e+00  -1.623e+00   0.000e+00
   2.039e+00  -7.071e-01   0.000e+00
   1.069e+00  -1.673e+00   0.000e+00
   5.008e-01   2.228e+00   0.000e+00
  -1.632e+00   1.112e+00   0.000e+00
   2.087e+00   1.746e-01   0.000e+00
  -5.122e-01  -1.997e+00   0.000e+00
  -1.989e+00  -1.553e-01   0.000e+00
   1.788e+00   8.882e-01   0.000e+00
  -2.122e+00   2.073e-01   0.000e+00
  -2.341e-01  -2.002e+00   0.000e+00
   8.418e-01   1.834e+00   0.000e+00
  -3.106e-01   2.213e+00   0.000e+00
  -1.634e+00   1.393e+00   0.000e+00
  -1.413e+00  -1.395e+00   0.000e+00
  -7.762e-01  -1.850e+00   0.000e+00
   1.585e+00  -1.489e+00   0.000e+00
   1.824e+00  -1.139e+00   0.000e+00
   7.359e-01  -1.850e+00   0.000e+00
   1.833e+00  -7.582e-01   0.000e+00
  -1.967e+00  -3.396e-01   0.000e+00
  -1.929e+00  -5.228e-01   0.000e+00
  -6.584e-01   2.109e+00   0.000e+00
  -9.464e-01   1.903e+00   0.000e+00
  -1.848e+00   8.641e-01   0.000e+00
  -1.674e+00  -1.124e+00   0.000e+00
  -1.861e+00  -7.392e-01   0.000e+00
   1.794e+00   1.092e+00   0.000e+00
   1.962e+00  -3.371e-01   0.000e+00
  -2.021e+00   5.265e-02   0.000e+00
  -1.946e-02  -2.131e+00   0.000e+00
   1.933e+00   4.747e-01   0.000e+00
   1.631e+00   1.364e+00   0.000e+00
   1.119e-02   2.103e+00   0.000e+00
  -2.023e+00   5.736e-01   0.000e+00
   2.091e+00  -1.765e-01   0.000e+00
   1.618e-01  -2.178e+00   0.000e+00
   3.753e-01  -1.952e+00   0.000e+00
   1.864e+00   6.756e-01   0.000e+00
   1.351e+00   1.509e+00   0.000e+00
   1.002e+00   1.536e+00   0.000e+00
   6.750e-01   1.933e+00   0.000e+00
   3.336e-01   2.117e+00   0.000e+00
  -1.199e+00   1.782e+00   0.000e+00
  -1.398e+00   1.568e+00   0.000e+00
  -1.000e+00  -1.745e+00   0.000e+00
  -1.175e+00  -1.650e+00   0.000e+00
   5.598e-01  -1.905e+00   0.000e+00
   1.704e+00  -1.306e+00   0.000e+00
   1.225e+00  -1.558e+00   0.000e+00
   1.900e+00  -5.530e-01   0.000e+00
   1.705e+00  -6.010e-01   0.000e+00
   8.395e-01   1.640e+00   0.000e+00
  -1.041e+00   1.719e+00   0.000e+00
   1.474e+00   1.338e+00   0.000e+00
  -1.822e+00  -2.388e-01   0.000e+00
   6.739e-01   1.738e+00   0.000e+00
  -5.062e-01   1.943e+00   0.000e+00
  -1.322e+00  -1.559e+00   0.000e+00
   1.050e+00  -1.488e+00   0.000e+00
  -1.968e+00   2.531e-01   0.000e+00
   1.374e+00  -1.430e+00   0.000e+00
  -1.507e+00  -1.226e+00   0.000e+00
   1.740e+00   5.119e-01   0.000e+00
   1.613e+00   1.183e+00   0.000e+00
  -1.446e+00   1.376e+00   0.000e+00
   1.761e+00  -4.102e-01   0.000e+00
   8.994e-01  -1.586e+00   0.000e+00
   1.976e+00   3.037e-01   0.000e+00
   1.692e-01  -1.996e+00   0.000e+00
  -3.510e-01  -1.809e+00   0.000e+00
  -3.115e-01   2.055e+00   0.000e+00
  -1.573e+00   1.259e+00   0.000e+00
  -5.532e-01  -1.751e+00   0.000e+00
   1.738e+00  -9.514e-01   0.000e+00
   1.625e+00  -1.124e+00   0.000e+00
   7.387e-01  -1.673e+00   0.000e+00
  -1.749e+00  -5.523e-01   0.000e+00
  -1.824e+00  -4.028e-01   0.000e+00
  -7.421e-01   1.928e+00   0.000e+00
  -1.701e+00   9.576e-01   0.000e+00
  -1.859e+00   6.524e-01   0.000e+00
  -1.685e+00  -8.988e-01   0.000e+00
   1.940e+00  -1.547e-01   0.000e+00
  -1.839e+00  -4.239e-02   0.000e+00
  -1.325e-01   1.987e+00   0.000e+00
   2.010e+00  -6.827e-03   0.000e+00
   4.116e-01  -1.754e+00   0.000e+00
  -2.769e-02  -1.918e+00   0.000e+00
   1.672e+00   7.114e-01   0.000e+00
   1.166e+00   1.423e+00   0.000e+00
   5.041e-01   2.029e+00   0.000e+00
   1.699e-01   2.022e+00   0.000e+00
  -1.222e+00   1.631e+00   0.000e+00
  -8.749e-01  -1.615e+00   0.000e+00
   5.991e-01  -1.753e+00   0.000e+00
   1.507e+00  -1.284e+00   0.000e+00
   5.026e-01   1.833e+00   0.000e+00
  -2.844e-01   1.863e+00   0.000e+00
   8.921e-01  -1.414e+00   0.000e+00
  -1.906e+00   4.455e-01   0.000e+00
   1.598e+00   8.888e-01   0.000e+00
  -7.039e-01  -1.645e+00   0.000e+00
   8.364e-01   1.449e+00   0.000e+00
   1.545e+00   5.527e-01   0.000e+00
  -4.112e-01  -1.644e+00   0.000e+00
   1.538e+00  -9.484e-01   0.000e+00
  -1.675e+00  -7.133e-01   0.000e+00
   6.726e-01   1.546e+00   0.000e+00
   2.589e-02   1.949e+00   0.000e+00
  -1.077e+00   1.518e+00   0.000e+00
  -1.194e+00  -1.434e+00   0.000e+00
   1.317e+00  -1.245e+00   0.000e+00
   1.578e+00  -4.623e-01   0.000e+00
  -1.533e+00   9.578e-01   0.000e+00
   1.397e+00   1.144e+00   0.000e+00
   1.189e+00  -1.373e+00   0.000e+00
   7.356e-01  -1.493e+00   0.000e+00
   1.814e+00   3.180e-01   0.000e+00
  -1.427e+00   1.155e+00   0.000e+00
   1.630e+00  -7.802e-01   0.000e+00
   1.433e+00  -1.102e+00   0.000e+00
  -1.653e+00  -3.622e-01   0.000e+00
  -8.311e-01   1.747e+00   0.000e+00
  -6.316e-01   1.756e+00   0.000e+00
  -1.658e+00   7.661e-01   0.000e+00
  -1.472e+00  -1.022e+00   0.000e+00
   1.793e+00  -2.148e-01   0.000e+00
  -1.858e+00   1.286e-01   0.000e+00
  -1.664e+00  -1.330e-01   0.000e+00
   1.908e+00   1.499e-01   0.000e+00
   1.836e+00  -2.666e-02   0.000e+00
   2.510e-01  -1.840e+00   0.000e+00
  -1.709e-01  -1.820e+00   0.000e+00
   1.111e-01  -1.832e+00   0.000e+00
   1.311e+00   1.324e+00   0.000e+00
   9.970e-01   1.344e+00   0.000e+00
   3.307e-01   1.929e+00   0.000e+00
  -1.257e+00   1.453e+00   0.000e+00
  -1.321e+00  -1.222e+00   0.000e+00
  -1.044e+00  -1.574e+00   0.000e+00
   5.448e-01  -1.579e+00   0.000e+00
   1.619e+00  -2.821e-01   0.000e+00
   1.667e+00   1.017e+00   0.000e+00
  -1.338e+00   9.595e-01   0.000e+00
   6.733e-01   1.358e+00   0.000e+00
  -5.600e-01  -1.553e+00   0.000e+00
   1.486e+00   7.468e-01   0.000e+00
   5.024e-01   1.640e+00   0.000e+00
   1.632e+00  -7.229e-02   0.000e+00
  -1.487e+00  -2.250e-01   0.000e+00
   1.141e+00  -1.200e+00   0.000e+00
   1.254e+00  -1.072e+00   0.000e+00
   1.814e-01  -1.677e+00   0.000e+00
  -8.971e-01   1.574e+00   0.000e+00
   1.720e+00   1.363e-01   0.000e+00
  -2.296e-02  -1.740e+00   0.000e+00
   1.163e+00   1.206e+00   0.000e+00
  -7.236e-01   1.600e+00   0.000e+00
  -1.781e+00   2.877e-01   0.000e+00
  -7.537e-01  -1.449e+00   0.000e+00
  -1.548e+00  -5.798e-01   0.000e+00
  -2.163e-01  -1.641e+00   0.000e+00
   1.442e+00  -7.837e-01   0.000e+00
   3.222e-01   1.734e+00   0.000e+00
  -6.660e-02   1.791e+00   0.000e+00
   1.022e+00  -1.318e+00   0.000e+00
  -1.447e+00   7.881e-01   0.000e+00
   7.528e-01  -1.318e+00   0.000e+00
   1.597e+00   3.284e-01   0.000e+00
  -1.116e+00   1.332e+00   0.000e+00
   1.521e+00  -6.292e-01   0.000e+00
   1.351e+00  -9.314e-01   0.000e+00
  -4.349e-01   1.733e+00   0.000e+00
  -1.686e+00   5.070e-01   0.000e+00
  -1.521e+00  -7.936e-01   0.000e+00
  -1.677e+00   9.512e-02   0.000e+00
   8.365e-01   1.267e+00   0.000e+00
   1.496e-01   1.842e+00   0.000e+00
  -1.286e+00   1.289e+00   0.000e+00
  -1.089e+00  -1.220e+00   0.000e+00
  -1.233e+00  -1.035e+00   0.000e+00
  -9.724e-01  -1.427e+00   0.000e+00
   5.803e-01  -1.375e+00   0.000e+00
   1.429e+00   9.329e-01   0.000e+00
  -1.057e+00  -1.036e+00   0.000e+00
  -1.188e+00   1.124e+00   0.000e+00
  -1.469e+00  -4.052e-01   0.000e+00
   3.287e-01   1.534e+00   0.000e+00
   1.541e+00   1.033e+00   0.000e+00
   1.357e+00   6.030e-01   0.000e+00
  -5.502e-01   1.590e+00   0.000e+00
  -1.527e+00   6.304e-01   0.000e+00
   1.084e+00  -1.028e+00   0.000e+00
  -7.833e-01   1.465e+00   0.000e+00
   3.434e-01  -1.576e+00   0.000e+00
   9.793e-01   1.187e+00   0.000e+00
   1.453e+00  -3.377e-01   0.000e+00
   5.066e-01   1.448e+00   0.000e+00
  -3.671e-01  -1.460e+00   0.000e+00
   1.242e+00   9.908e-01   0.000e+00
   1.490e+00  -1.895e-01   0.000e+00
   9.732e-01  -1.160e+00   0.000e+00
   1.243e+00  -7.553e-01   0.000e+00
   1.194e+00  -9.221e-01   0.000e+00
  -1.413e-02  -1.555e+00   0.000e+00
  -5.685e-01  -1.359e+00   0.000e+00
   1.366e+00  -6.407e-01   0.000e+00
   1.146e-01   1.624e+00   0.000e+00
  -2.488e-01   1.673e+00   0.000e+00
  -1.265e+00   7.889e-01   0.000e+00
   6.189e-01  -1.188e+00   0.000e+00
   1.402e+00   4.117e-01   0.000e+00
   1.524e+00   1.166e-01   0.000e+00
   1.407e+00  -4.973e-01   0.000e+00
  -1.590e+00   2.986e-01   0.000e+00
  -1.504e+00  -1.934e-02   0.000e+00
   6.821e-01   1.173e+00   0.000e+00
  -1.402e+00  -6.886e-01   0.000e+00
  -1.331e+00  -8.465e-01   0.000e+00
  -8.772e-01  -1.269e+00   0.000e+00
   3.934e-01  -1.420e+00   0.000e+00
   3.476e-01   1.341e+00   0.000e+00
  -4.111e-01  -1.244e+00   0.000e+00
   1.300e+00   7.935e-01   0.000e+00
  -1.478e+00   4.652e-01   0.000e+00
  -9.629e-01   1.199e+00   0.000e+00
  -3.872e-01   1.575e+00   0.000e+00
  -1.366e+00   6.234e-01   0.000e+00
  -7.164e-01  -1.275e+00   0.000e+00
   1.801e-01  -1.448e+00   0.000e+00
  -1.178e+00   9.346e-01   0.000e+00
   1.707e-01   1.411e+00   0.000e+00
  -1.357e+00  -5.298e-01   0.000e+00
  -6.498e-01   1.470e+00   0.000e+00
   8.988e-01  -9.912e-01   0.000e+00
   8.550e-01   1.086e+00   0.000e+00
  -1.711e-01  -1.465e+00   0.000e+00
   1.041e+00   1.031e+00   0.000e+00
   1.319e+00  -2.048e-01   0.000e+00
   1.035e+00  -8.279e-01   0.000e+00
   1.221e+00  -5.322e-01   0.000e+00
  -8.878e-02   1.602e+00   0.000e+00
  -1.301e+00  -3.219e-01   0.000e+00
   8.012e-01  -1.151e+00   0.000e+00
   1.219e+00   4.621e-01   0.000e+00
   1.429e+00  -4.723e-02   0.000e+00
   1.425e+00   2.470e-01   0.000e+00
   1.305e+00  -3.774e-01   0.000e+00
  -1.508e+00   1.518e-01   0.000e+00
  -1.333e+00  -9.747e-02   0.000e+00
   5.148e-01   1.259e+00   0.000e+00
  -1.240e+00  -6.757e-01   0.000e+00
  -9.416e-01  -1.121e+00   0.000e+00
   4.338e-01  -1.242e+00   0.000e+00
  -2.185e-01  -1.305e+00   0.000e+00
   6.752e-01  -9.766e-01   0.000e+00
   1.270e+00  -3.814e-02   0.000e+00
  -4.725e-01   1.406e+00   0.000e+00
  -1.182e+00  -4.895e-01   0.000e+00
   3.607e-01   1.158e+00   0.000e+00
   5.243e-01   1.073e+00   0.000e+00
  -1.015e+00   9.913e-01   0.000e+00
   1.262e+00   2.715e-01   0.000e+00
  -8.946e-01  -9.491e-01   0.000e+00
  -1.183e+00   6.189e-01   0.000e+00
   8.883e-01  -1.272e+00   0.000e+00
  -1.363e+00   1.029e-01   0.000e+00
  -1.295e+00   4.452e-01   0.000e+00
   6.965e-01   9.815e-01   0.000e+00
  -1.108e+00  -8.490e-01   0.000e+00
  -1.750e-02   1.453e+00   0.000e+00
   8.883e-01   8.753e-01   0.000e+00
  -9.257e-01   1.396e+00   0.000e+00
  -5.975e-01  -1.169e+00   0.000e+00
   2.769e-01  -1.294e+00   0.000e+00
  -1.082e+00   7.979e-01   0.000e+00
   2.026e-01   1.234e+00   0.000e+00
  -7.163e-01   1.283e+00   0.000e+00
  -2.997e-02  -1.367e+00   0.000e+00
   1.105e+00   8.383e-01   0.000e+00
   1.086e+00  -6.505e-01   0.000e+00
  -2.308e-01   1.471e+00   0.000e+00
   8.195e-01  -8.100e-01   0.000e+00
   1.168e+00   6.500e-01   0.000e+00
   1.337e+00   1.050e-01   0.000e+00
   1.131e+00  -3.148e-01   0.000e+00
  -1.411e+00   2.859e-01   0.000e+00
  -1.159e+00  -1.591e-01   0.000e+00
  -7.806e-01  -1.124e+00   0.000e+00
   4.686e-01  -1.059e+00   0.000e+00
   9.826e-01   6.910e-01   0.000e+00
  -2.530e-01  -1.115e+00   0.000e+00
  -1.055e+00  -6.321e-01   0.000e+00
  -9.832e-01   6.159e-01   0.000e+00
  -8.609e-01   8.223e-01   0.000e+00
  -6.520e-01  -9.610e-01   0.000e+00
   3.793e-02   1.285e+00   0.000e+00
   6.359e-01  -7.643e-01   0.000e+00
   9.179e-01  -6.520e-01   0.000e+00
   2.652e-01  -1.115e+00   0.000e+00
  -1.183e-01   1.324e+00   0.000e+00
   5.315e-01   8.855e-01   0.000e+00
  -4.833e-01   1.183e+00   0.000e+00
   1.075e+00   3.225e-01   0.000e+00
   1.111e+00   8.257e-02   0.000e+00
  -1.103e+00   4.241e-01   0.000e+00
  -1.190e+00   4.868e-02   0.000e+00
   6.981e-01   7.945e-01   0.000e+00
  -4.451e-01  -1.047e+00   0.000e+00
   2.108e-01   1.067e+00   0.000e+00
  -8.095e-01   1.051e+00   0.000e+00
   1.164e-01  -1.249e+00   0.000e+00
  -2.841e-01   1.266e+00   0.000e+00
   1.035e+00   5.137e-01   0.000e+00
   1.159e+00  -1.226e-01   0.000e+00
  -1.234e+00   2.528e-01   0.000e+00
   3.666e-01   9.768e-01   0.000e+00
  -1.129e+00  -3.283e-01   0.000e+00
   4.833e-01  -8.730e-01   0.000e+00
  -6.508e-02  -1.184e+00   0.000e+00
  -9.536e-02   1.146e+00   0.000e+00
  -9.351e-01  -7.578e-01   0.000e+00
   9.028e-01   3.926e-01   0.000e+00
  -8.781e-01   3.984e-01   0.000e+00
  -1.009e+00  -4.327e-01   0.000e+00
  -4.640e-01  -8.639e-01   0.000e+00
  -6.619e-01   9.143e-01   0.000e+00
   3.708e-01   7.916e-01   0.000e+00
  -6.314e-01   1.083e+00   0.000e+00
   1.015e+00  -4.941e-01   0.000e+00
  -9.974e-01  -2.297e-01   0.000e+00
   9.223e-01   2.144e-01   0.000e+00
   7.752e-02  -1.089e+00   0.000e+00
  -7.640e-01  -7.779e-01   0.000e+00
   2.057e-01   8.918e-01   0.000e+00
   3.373e-01  -9.518e-01   0.000e+00
   7.577e-01  -6.569e-01   0.000e+00
  -2.992e-01   1.066e+00   0.000e+00
   9.681e-01  -1.368e-01   0.000e+00
  -1.041e+00   2.093e-01   0.000e+00
  -1.009e+00  -1.482e-02   0.000e+00
   8.277e-01   7.086e-01   0.000e+00
   5.411e-01   7.002e-01   0.000e+00
  -2.877e-01  -9.314e-01   0.000e+00
  -7.784e-01   6.119e-01   0.000e+00
   8.648e-01   5.620e-01   0.000e+00
   4.682e-01  -6.882e-01   0.000e+00
   5.095e-02   1.001e+00   0.000e+00
  -8.462e-01  -5.722e-01   0.000e+00
   9.048e-01   4.959e-02   0.000e+00
   8.140e-02   1.147e+00   0.000e+00
   2.044e-01   7.065e-01   0.000e+00
   1.521e-01  -9.165e-01   0.000e+00
  -8.295e-01   1.425e-01   0.000e+00
  -8.390e-01  -3.318e-01   0.000e+00
  -3.136e-01  -7.616e-01   0.000e+00
  -4.811e-01   9.839e-01   0.000e+00
   3.816e-01   6.029e-01   0.000e+00
   7.856e-01   2.969e-01   0.000e+00
  -6.011e-01  -7.859e-01   0.000e+00
  -1.285e-01   9.431e-01   0.000e+00
   3.179e-01  -7.920e-01   0.000e+00
   8.036e-01  -4.806e-01   0.000e+00
   9.387e-01  -3.374e-01   0.000e+00
  -8.351e-01  -1.061e-01   0.000e+00
   7.050e-01   6.201e-01   0.000e+00
   7.377e-01   4.451e-01   0.000e+00
  -7.961e-02  -9.770e-01   0.000e+00
  -6.771e-01   7.496e-01   0.000e+00
  -6.711e-01   4.539e-01   0.000e+00
   6.203e-01  -5.797e-01   0.000e+00
   6.115e-01  -3.824e-01   0.000e+00
   3.520e-02   8.210e-01   0.000e+00
  -6.606e-01   7.575e-03   0.000e+00
   2.094e-01   5.125e-01   0.000e+00
  -1.702e-01  -8.242e-01   0.000e+00
   6.057e-01   2.898e-01   0.000e+00
  -3.098e-01   8.743e-01   0.000e+00
  -4.891e-01   7.794e-01   0.000e+00
   1.588e-01  -7.081e-01   0.000e+00
   5.619e-01   5.096e-01   0.000e+00
  -6.682e-01  -2.132e-01   0.000e+00
   4.524e-01  -5.004e-01   0.000e+00
  -1.319e-02  -7.818e-01   0.000e+00
  -6.671e-01  -4.295e-01   0.000e+00
   7.615e-01   1.416e-01   0.000e+00
  -6.420e-01  -6.285e-01   0.000e+00
  -4.733e-01  -6.897e-01   0.000e+00
   3.078e-01  -6.125e-01   0.000e+00
   7.651e-01  -5.364e-02   0.000e+00
   7.799e-01  -2.599e-01   0.000e+00
  -5.837e-01   6.104e-01   0.000e+00
  -7.203e-01   3.006e-01   0.000e+00
  -3.055e-01   7.143e-01   0.000e+00
   1.490e-02  -5.948e-01   0.000e+00
  -4.870e-01  -1.016e-01   0.000e+00
  -5.663e-01   3.101e-01   0.000e+00
  -4.976e-01  -3.117e-01   0.000e+00
  -1.584e-01  -6.691e-01   0.000e+00
   5.858e-01   5.485e-02   0.000e+00
   3.975e-01   4.010e-01   0.000e+00
  -1.448e-01   7.570e-01   0.000e+00
   2.419e-02   6.310e-01   0.000e+00
  -3.965e-01   5.976e-01   0.000e+00
   2.789e-01  -4.327e-01   0.000e+00
   4.262e-01  -2.974e-01   0.000e+00
  -3.202e-01  -5.828e-01   0.000e+00
  -4.894e-01  -5.069e-01   0.000e+00
   5.920e-01  -1.668e-01   0.000e+00
  -6.507e-01   1.792e-01   0.000e+00
   2.178e-02   4.279e-01   0.000e+00
   4.017e-01   1.827e-01   0.000e+00
  -1.863e-01   5.592e-01   0.000e+00
   1.675e-01  -5.482e-01   0.000e+00
  -4.885e-01   4.576e-01   0.000e+00
  -3.267e-01  -2.174e-01   0.000e+00
  -1.441e-01  -4.645e-01   0.000e+00
  -4.736e-01   1.265e-01   0.000e+00
   2.147e-01   3.085e-01   0.000e+00
   2.319e-01  -2.364e-01   0.000e+00
  -3.309e-01  -3.990e-01   0.000e+00
   3.781e-01  -6.070e-02   0.000e+00
  -2.070e-01  -3.110e-01   0.000e+00
   7.228e-02  -3.922e-01   0.000e+00
  -3.863e-01   3.104e-01   0.000e+00
  -1.780e-01   3.254e-01   0.000e+00
   2.116e-01   1.029e-01   0.000e+00
  -2.777e-01  -1.459e-02   0.000e+00
   3.238e-02   2.193e-01   0.000e+00
   1.806e-01  -6.626e-02   0.000e+00
  -2.874e-01   1.737e-01   0.000e+00
  -1.582e-01  -1.752e-01   0.000e+00
  -1.266e-01   1.158e-01   0.000e+00
   2.844e-02  -1.687e-01   0.000e+00
   3.864e-02   2.726e-02   0.000e+00
  -8.171e-02  -3.023e-01   0.000e+00
  -3.271e-01   4.500e-01   0.000e+00
  -9.909e-02  -4.311e-02   0.000e+00
   1.071e+00  -1.714e+00   0.000e+00
   1.131e+00  -1.700e+00   0.000e+00
   1.071e+00  -1.714e+00   0.000e+00
   1.131e+00  -1.700e+00   0.000e+00
  -1.717e+00  -1.817e+00   0.000e+00
  -1.711e+00  -1.824e+00   0.000e+00
  -1.717e+00  -1.817e+00   0.000e+00
  -1.711e+00  -1.824e+00   0.000e+00
  -1.566e+00  -1.952e+00   0.000e+00
  -1.563e+00  -1.954e+00   0.000e+00
  -1.566e+00  -1.952e+00   0.000e+00
  -1.563e+00  -1.954e+00   0.000e+00
  -1.368e+00  -2.014e+00   0.000e+00
  -1.285e+00  -2.017e+00   0.000e+00
  -1.368e+00  -2.014e+00   0.000e+00
  -1.285e+00  -2.017e+00   0.000e+00
  -1.140e+00  -1.993e+00   0.000e+00
  -1.192e+00  -2.007e+00   0.000e+00
  -1.140e+00  -1.993e+00   0.000e+00
  -1.192e+00  -2.007e+00   0.000e+00
  -1.798e+00  -1.636e+00   0.000e+00
  -1.727e+00  -1.797e+00   0.000e+00
  -1.798e+00  -1.636e+00   0.000e+00
  -1.727e+00  -1.797e+00   0.000e+00
  -1.717e+00  -1.817e+00   0.000e+00
  -1.727e+00  -1.797e+00   0.000e+00
  -1.717e+00  -1.817e+00   0.000e+00
  -1.727e+00  -1.797e+00   0.000e+00
  -1.711e+00  -1.824e+00   0.000e+00
  -1.566e+00  -1.952e+00   0.000e+00
  -1.711e+00  -1.824e+00   0.000e+00
  -1.566e+00  -1.952e+00   0.000e+00
  -1.563e+00  -1.954e+00   0.000e+00
  -1.552e+00  -1.958e+00   0.000e+00
  -1.563e+00  -1.954e+00   0.000e+00
  -1.552e+00  -1.958e+00   0.000e+00
  -1.140e+00  -1.993e+00   0.000e+00
  -1.002e+00  -1.929e+00   0.000e+00
  -1.140e+00  -1.993e+00   0.000e+00
  -1.002e+00  -1.929e+00   0.000e+00
  -1.368e+00  -2.014e+00   0.000e+00
  -1.425e+00  -2.004e+00   0.000e+00
  -1.368e+00  -2.014e+00   0.000e+00
  -1.425e+00  -2.004e+00   0.000e+00
  -1.764e+00  -1.284e+00   0.000e+00
  -1.820e+00  -1.441e+00   0.000e+00
  -1.764e+00  -1.284e+00   0.000e+00
  -1.820e+00  -1.441e+00   0.000e+00
  -1.798e+00  -1.636e+00   0.000e+00
  -1.820e+00  -1.455e+00   0.000e+00
  -1.798e+00  -1.636e+00   0.000e+00
  -1.820e+00  -1.455e+00   0.000e+00
   1.924e+00   9.978e-01   0.000e+00
   1.924e+00   9.898e-01   0.000e+00
   1.924e+00   9.978e-01   0.000e+00
   1.924e+00   9.898e-01   0.000e+00
  -1.285e+00  -2.017e+00   0.000e+00
  -1.192e+00  -2.007e+00   0.000e+00
  -1.285e+00  -2.017e+00   0.000e+00
  -1.192e+00  -2.007e+00   0.000e+00
   1.815e+00   1.312e+00   0.000e+00
   1.770e+00   1.358e+00   0.000e+00
   1.815e+00   1.312e+00   0.000e+00
   1.770e+00   1.358e+00   0.000e+00
  -1.552e+00  -1.958e+00   0.000e+00
  -1.425e+00  -2.004e+00   0.000e+00
  -1.552e+00  -1.958e+00   0.000e+00
  -1.425e+00  -2.004e+00   0.000e+00
   1.815e+00   1.312e+00   0.000e+00
   1.848e+00   1.252e+00   0.000e+00
   1.815e+00   1.312e+00   0.000e+00
   1.848e+00   1.252e+00   0.000e+00
  -1.820e+00  -1.441e+00   0.000e+00
  -1.820e+00  -1.455e+00   0.000e+00
  -1.820e+00  -1.441e+00   0.000e+00
  -1.820e+00  -1.455e+00   0.000e+00
  -1.002e+00  -1.929e+00   0.000e+00
  -9.873e-01  -1.918e+00   0.000e+00
  -1.002e+00  -1.929e+00   0.000e+00
  -9.873e-01  -1.918e+00   0.000e+00
  -1.764e+00  -1.284e+00   0.000e+00
  -1.672e+00  -1.133e+00   0.000e+00
  -1.764e+00  -1.284e+00   0.000e+00
  -1.672e+00  -1.133e+00   0.000e+00
   1.394e+00  -1.533e+00   0.000e+00
   1.449e+00  -1.451e+00   0.000e+00
   1.394e+00  -1.533e+00   0.000e+00
   1.449e+00  -1.451e+00   0.000e+00
   1.545e+00   1.504e+00   0.000e+00
   1.544e+00   1.505e+00   0.000e+00
   1.545e+00   1.504e+00   0.000e+00
   1.544e+00   1.505e+00   0.000e+00
   1.848e+00   1.252e+00   0.000e+00
   1.896e+00   1.138e+00   0.000e+00
   1.848e+00   1.252e+00   0.000e+00
   1.896e+00   1.138e+00   0.000e+00
   1.842e+00   7.365e-01   0.000e+00
   1.894e+00   8.564e-01   0.000e+00
   1.842e+00   7.365e-01   0.000e+00
   1.894e+00   8.564e-01   0.000e+00
   1.394e+00  -1.533e+00   0.000e+00
   1.331e+00  -1.595e+00   0.000e+00
   1.394e+00  -1.533e+00   0.000e+00
   1.331e+00  -1.595e+00   0.000e+00
   1.545e+00   1.504e+00   0.000e+00
   1.548e+00   1.503e+00   0.000e+00
   1.545e+00   1.504e+00   0.000e+00
   1.548e+00   1.503e+00   0.000e+00
   1.548e+00   1.503e+00   0.000e+00
   1.685e+00   1.432e+00   0.000e+00
   1.548e+00   1.503e+00   0.000e+00
   1.685e+00   1.432e+00   0.000e+00
   1.350e+00   1.520e+00   0.000e+00
   1.337e+00   1.518e+00   0.000e+00
   1.350e+00   1.520e+00   0.000e+00
   1.337e+00   1.518e+00   0.000e+00
   1.350e+00   1.520e+00   0.000e+00
   1.362e+00   1.521e+00   0.000e+00
   1.350e+00   1.520e+00   0.000e+00
   1.362e+00   1.521e+00   0.000e+00
  -1.500e+00   9.581e-01   0.000e+00
  -1.507e+00   1.005e+00   0.000e+00
  -1.500e+00   9.581e-01   0.000e+00
  -1.507e+00   1.005e+00   0.000e+00
  -1.447e+00   1.375e+00   0.000e+00
  -1.446e+00   1.376e+00   0.000e+00
  -1.447e+00   1.375e+00   0.000e+00
  -1.446e+00   1.376e+00   0.000e+00
   1.331e+00  -1.595e+00   0.000e+00
   1.239e+00  -1.657e+00   0.000e+00
   1.331e+00  -1.595e+00   0.000e+00
   1.239e+00  -1.657e+00   0.000e+00
   1.071e+00  -1.714e+00   0.000e+00
   9.957e-01  -1.716e+00   0.000e+00
   1.071e+00  -1.714e+00   0.000e+00
   9.957e-01  -1.716e+00   0.000e+00
   9.096e-01   8.337e-01   0.000e+00
   8.906e-01   8.749e-01   0.000e+00
   9.096e-01   8.337e-01   0.000e+00
   8.906e-01   8.749e-01   0.000e+00
   1.924e+00   9.898e-01   0.000e+00
   1.894e+00   8.564e-01   0.000e+00
   1.924e+00   9.898e-01   0.000e+00
   1.894e+00   8.564e-01   0.000e+00
  -9.873e-01  -1.918e+00   0.000e+00
  -8.863e-01  -1.799e+00   0.000e+00
  -9.873e-01  -1.918e+00   0.000e+00
  -8.863e-01  -1.799e+00   0.000e+00
   9.957e-01  -1.716e+00   0.000e+00
   9.023e-01  -1.708e+00   0.000e+00
   9.957e-01  -1.716e+00   0.000e+00
   9.023e-01  -1.708e+00   0.000e+00
   1.924e+00   9.978e-01   0.000e+00
   1.896e+00   1.138e+00   0.000e+00
   1.924e+00   9.978e-01   0.000e+00
   1.896e+00   1.138e+00   0.000e+00
   1.770e+00   1.358e+00   0.000e+00
   1.685e+00   1.432e+00   0.000e+00
   1.770e+00   1.358e+00   0.000e+00
   1.685e+00   1.432e+00   0.000e+00
   1.544e+00   1.505e+00   0.000e+00
   1.362e+00   1.521e+00   0.000e+00
   1.544e+00   1.505e+00   0.000e+00
   1.362e+00   1.521e+00   0.000e+00
   6.182e-01  -1.546e+00   0.000e+00
   7.383e-01  -1.651e+00   0.000e+00
   6.182e-01  -1.546e+00   0.000e+00
   7.383e-01  -1.651e+00   0.000e+00
   1.167e+00   1.464e+00   0.000e+00
   1.134e+00   1.445e+00   0.000e+00
   1.167e+00   1.464e+00   0.000e+00
   1.134e+00   1.445e+00   0.000e+00
  -1.446e+00   1.376e+00   0.000e+00
  -1.446e+00   1.377e+00   0.000e+00
  -1.446e+00   1.376e+00   0.000e+00
  -1.446e+00   1.377e+00   0.000e+00
  -1.235e+00   1.561e+00   0.000e+00
  -1.168e+00   1.589e+00   0.000e+00
  -1.235e+00   1.561e+00   0.000e+00
  -1.168e+00   1.589e+00   0.000e+00
   9.023e-01  -1.708e+00   0.000e+00
   7.588e-01  -1.662e+00   0.000e+00
   9.023e-01  -1.708e+00   0.000e+00
   7.588e-01  -1.662e+00   0.000e+00
   1.513e+00  -1.298e+00   0.000e+00
   1.516e+00  -1.285e+00   0.000e+00
   1.513e+00  -1.298e+00   0.000e+00
   1.516e+00  -1.285e+00   0.000e+00
   1.509e+00  -1.111e+00   0.000e+00
   1.517e+00  -1.270e+00   0.000e+00
   1.509e+00  -1.111e+00   0.000e+00
   1.517e+00  -1.270e+00   0.000e+00
   1.131e+00  -1.700e+00   0.000e+00
   1.239e+00  -1.657e+00   0.000e+00
   1.131e+00  -1.700e+00   0.000e+00
   1.239e+00  -1.657e+00   0.000e+00
   1.337e+00   1.518e+00   0.000e+00
   1.167e+00   1.464e+00   0.000e+00
   1.337e+00   1.518e+00   0.000e+00
   1.167e+00   1.464e+00   0.000e+00
  -1.672e+00  -1.133e+00   0.000e+00
  -1.668e+00  -1.128e+00   0.000e+00
  -1.672e+00  -1.133e+00   0.000e+00
  -1.668e+00  -1.128e+00   0.000e+00
   1.842e+00   7.365e-01   0.000e+00
   1.811e+00   6.855e-01   0.000e+00
   1.842e+00   7.365e-01   0.000e+00
   1.811e+00   6.855e-01   0.000e+00
  -1.446e+00   1.377e+00   0.000e+00
  -1.446e+00   1.377e+00   0.000e+00
  -1.446e+00   1.377e+00   0.000e+00
  -1.446e+00   1.377e+00   0.000e+00
  -1.507e+00   1.005e+00   0.000e+00
  -1.513e+00   1.137e+00   0.000e+00
  -1.507e+00   1.005e+00   0.000e+00
  -1.513e+00   1.137e+00   0.000e+00
  -7.984e-01  -1.629e+00   0.000e+00
  -8.352e-01  -1.710e+00   0.000e+00
  -7.984e-01  -1.629e+00   0.000e+00
  -8.352e-01  -1.710e+00   0.000e+00
  -8.863e-01  -1.799e+00   0.000e+00
  -8.352e-01  -1.710e+00   0.000e+00
  -8.863e-01  -1.799e+00   0.000e+00
  -8.352e-01  -1.710e+00   0.000e+00
  -1.487e+00  -1.013e+00   0.000e+00
  -1.628e+00  -1.101e+00   0.000e+00
  -1.487e+00  -1.013e+00   0.000e+00
  -1.628e+00  -1.101e+00   0.000e+00
  -9.359e-01   1.613e+00   0.000e+00
  -1.060e+00   1.611e+00   0.000e+00
  -9.359e-01   1.613e+00   0.000e+00
  -1.060e+00   1.611e+00   0.000e+00
  -1.668e+00  -1.128e+00   0.000e+00
  -1.628e+00  -1.101e+00   0.000e+00
  -1.668e+00  -1.128e+00   0.000e+00
  -1.628e+00  -1.101e+00   0.000e+00
   1.811e+00   6.855e-01   0.000e+00
   1.713e+00   5.911e-01   0.000e+00
   1.811e+00   6.855e-01   0.000e+00
   1.713e+00   5.911e-01   0.000e+00
  -1.446e+00   1.377e+00   0.000e+00
  -1.321e+00   1.505e+00   0.000e+00
  -1.446e+00   1.377e+00   0.000e+00
  -1.321e+00   1.505e+00   0.000e+00
   7.383e-01  -1.651e+00   0.000e+00
   7.588e-01  -1.662e+00   0.000e+00
   7.383e-01  -1.651e+00   0.000e+00
   7.588e-01  -1.662e+00   0.000e+00
   1.449e+00  -1.451e+00   0.000e+00
   1.513e+00  -1.298e+00   0.000e+00
   1.449e+00  -1.451e+00   0.000e+00
   1.513e+00  -1.298e+00   0.000e+00
   1.516e+00  -1.285e+00   0.000e+00
   1.517e+00  -1.270e+00   0.000e+00
   1.516e+00  -1.285e+00   0.000e+00
   1.517e+00  -1.270e+00   0.000e+00
  -9.359e-01   1.613e+00   0.000e+00
  -8.845e-01   1.607e+00   0.000e+00
  -9.359e-01   1.613e+00   0.000e+00
  -8.845e-01   1.607e+00   0.000e+00
  -1.168e+00   1.589e+00   0.000e+00
  -1.060e+00   1.611e+00   0.000e+00
  -1.168e+00   1.589e+00   0.000e+00
  -1.060e+00   1.611e+00   0.000e+00
   1.446e+00  -9.400e-01   0.000e+00
   1.486e+00  -1.024e+00   0.000e+00
   1.446e+00  -9.400e-01   0.000e+00
   1.486e+00  -1.024e+00   0.000e+00
   1.713e+00   5.911e-01   0.000e+00
   1.625e+00   5.359e-01   0.000e+00
   1.713e+00   5.911e-01   0.000e+00
   1.625e+00   5.359e-01   0.000e+00
  -1.513e+00   1.137e+00   0.000e+00
  -1.505e+00   1.211e+00   0.000e+00
  -1.513e+00   1.137e+00   0.000e+00
  -1.505e+00   1.211e+00   0.000e+00
   1.002e+00   1.340e+00   0.000e+00
   1.015e+00   1.353e+00   0.000e+00
   1.002e+00   1.340e+00   0.000e+00
   1.015e+00   1.353e+00   0.000e+00
   1.625e+00   5.359e-01   0.000e+00
   1.556e+00   5.072e-01   0.000e+00
   1.625e+00   5.359e-01   0.000e+00
   1.556e+00   5.072e-01   0.000e+00
  -1.447e+00   1.375e+00   0.000e+00
  -1.505e+00   1.211e+00   0.000e+00
  -1.447e+00   1.375e+00   0.000e+00
  -1.505e+00   1.211e+00   0.000e+00
   1.509e+00  -1.111e+00   0.000e+00
   1.486e+00  -1.024e+00   0.000e+00
   1.509e+00  -1.111e+00   0.000e+00
   1.486e+00  -1.024e+00   0.000e+00
  -1.487e+00  -1.013e+00   0.000e+00
  -1.475e+00  -1.008e+00   0.000e+00
  -1.487e+00  -1.013e+00   0.000e+00
  -1.475e+00  -1.008e+00   0.000e+00
   1.134e+00   1.445e+00   0.000e+00
   1.015e+00   1.353e+00   0.000e+00
   1.134e+00   1.445e+00   0.000e+00
   1.015e+00   1.353e+00   0.000e+00
   9.957e-01   1.332e+00   0.000e+00
   9.278e-01   1.216e+00   0.000e+00
   9.957e-01   1.332e+00   0.000e+00
   9.278e-01   1.216e+00   0.000e+00
  -1.235e+00   1.561e+00   0.000e+00
  -1.321e+00   1.505e+00   0.000e+00
  -1.235e+00   1.561e+00   0.000e+00
  -1.321e+00   1.505e+00   0.000e+00
  -7.832e-01  -1.446e+00   0.000e+00
  -7.825e-01  -1.489e+00   0.000e+00
  -7.832e-01  -1.446e+00   0.000e+00
  -7.825e-01  -1.489e+00   0.000e+00
   6.182e-01  -1.546e+00   0.000e+00
   5.633e-01  -1.473e+00   0.000e+00
   6.182e-01  -1.546e+00   0.000e+00
   5.633e-01  -1.473e+00   0.000e+00
  -7.984e-01  -1.629e+00   0.000e+00
  -7.825e-01  -1.489e+00   0.000e+00
  -7.984e-01  -1.629e+00   0.000e+00
  -7.825e-01  -1.489e+00   0.000e+00
   1.276e+00  -7.601e-01   0.000e+00
   1.393e+00  -8.629e-01   0.000e+00
   1.276e+00  -7.601e-01   0.000e+00
   1.393e+00  -8.629e-01   0.000e+00
  -8.845e-01   1.607e+00   0.000e+00
  -8.199e-01   1.585e+00   0.000e+00
  -8.845e-01   1.607e+00   0.000e+00
  -8.199e-01   1.585e+00   0.000e+00
  -1.500e+00   9.581e-01   0.000e+00
  -1.433e+00   8.111e-01   0.000e+00
  -1.500e+00   9.581e-01   0.000e+00
  -1.433e+00   8.111e-01   0.000e+00
   1.483e+00   4.912e-01   0.000e+00
   1.385e+00   4.840e-01   0.000e+00
   1.483e+00   4.912e-01   0.000e+00
   1.385e+00   4.840e-01   0.000e+00
   1.446e+00  -9.400e-01   0.000e+00
   1.393e+00  -8.629e-01   0.000e+00
   1.446e+00  -9.400e-01   0.000e+00
   1.393e+00  -8.629e-01   0.000e+00
  -1.457e+00  -1.004e+00   0.000e+00
  -1.259e+00  -9.850e-01   0.000e+00
  -1.457e+00  -1.004e+00   0.000e+00
  -1.259e+00  -9.850e-01   0.000e+00
  -6.679e-01   1.502e+00   0.000e+00
  -7.443e-01   1.553e+00   0.000e+00
  -6.679e-01   1.502e+00   0.000e+00
  -7.443e-01   1.553e+00   0.000e+00
   1.276e+00  -7.601e-01   0.000e+00
   1.255e+00  -7.438e-01   0.000e+00
   1.276e+00  -7.601e-01   0.000e+00
   1.255e+00  -7.438e-01   0.000e+00
  -8.199e-01   1.585e+00   0.000e+00
  -7.443e-01   1.553e+00   0.000e+00
  -8.199e-01   1.585e+00   0.000e+00
  -7.443e-01   1.553e+00   0.000e+00
   5.633e-01  -1.473e+00   0.000e+00
   5.188e-01  -1.390e+00   0.000e+00
   5.633e-01  -1.473e+00   0.000e+00
   5.188e-01  -1.390e+00   0.000e+00
   1.002e+00   1.340e+00   0.000e+00
   9.957e-01   1.332e+00   0.000e+00
   1.002e+00   1.340e+00   0.000e+00
   9.957e-01   1.332e+00   0.000e+00
   1.255e+00  -7.438e-01   0.000e+00
   1.241e+00  -7.375e-01   0.000e+00
   1.255e+00  -7.438e-01   0.000e+00
   1.241e+00  -7.375e-01   0.000e+00
   5.188e-01  -1.390e+00   0.000e+00
   4.931e-01  -1.296e+00   0.000e+00
   5.188e-01  -1.390e+00   0.000e+00
   4.931e-01  -1.296e+00   0.000e+00
  -1.433e+00   8.111e-01   0.000e+00
  -1.417e+00   7.882e-01   0.000e+00
  -1.433e+00   8.111e-01   0.000e+00
  -1.417e+00   7.882e-01   0.000e+00
   1.556e+00   5.072e-01   0.000e+00
   1.483e+00   4.912e-01   0.000e+00
   1.556e+00   5.072e-01   0.000e+00
   1.483e+00   4.912e-01   0.000e+00
  -1.187e+00   6.114e-01   0.000e+00
  -1.203e+00   6.194e-01   0.000e+00
  -1.187e+00   6.114e-01   0.000e+00
  -1.203e+00   6.194e-01   0.000e+00
  -1.259e+00  -9.850e-01   0.000e+00
  -1.205e+00  -9.924e-01   0.000e+00
  -1.259e+00  -9.850e-01   0.000e+00
  -1.205e+00  -9.924e-01   0.000e+00
  -1.475e+00  -1.008e+00   0.000e+00
  -1.457e+00  -1.004e+00   0.000e+00
  -1.475e+00  -1.008e+00   0.000e+00
  -1.457e+00  -1.004e+00   0.000e+00
  -1.205e+00  -9.924e-01   0.000e+00
  -1.058e+00  -1.035e+00   0.000e+00
  -1.205e+00  -9.924e-01   0.000e+00
  -1.058e+00  -1.035e+00   0.000e+00
  -7.832e-01  -1.446e+00   0.000e+00
  -7.991e-01  -1.383e+00   0.000e+00
  -7.832e-01  -1.446e+00   0.000e+00
  -7.991e-01  -1.383e+00   0.000e+00
   4.931e-01  -1.296e+00   0.000e+00
   4.827e-01  -1.228e+00   0.000e+00
   4.931e-01  -1.296e+00   0.000e+00
   4.827e-01  -1.228e+00   0.000e+00
   8.901e-01   8.771e-01   0.000e+00
   8.857e-01   1.077e+00   0.000e+00
   8.901e-01   8.771e-01   0.000e+00
   8.857e-01   1.077e+00   0.000e+00
  -6.679e-01   1.502e+00   0.000e+00
  -6.409e-01   1.480e+00   0.000e+00
  -6.679e-01   1.502e+00   0.000e+00
  -6.409e-01   1.480e+00   0.000e+00
  -1.417e+00   7.882e-01   0.000e+00
  -1.321e+00   6.962e-01   0.000e+00
  -1.417e+00   7.882e-01   0.000e+00
  -1.321e+00   6.962e-01   0.000e+00
  -7.991e-01  -1.383e+00   0.000e+00
  -8.331e-01  -1.271e+00   0.000e+00
  -7.991e-01  -1.383e+00   0.000e+00
  -8.331e-01  -1.271e+00   0.000e+00
  -1.203e+00   6.194e-01   0.000e+00
  -1.321e+00   6.962e-01   0.000e+00
  -1.203e+00   6.194e-01   0.000e+00
  -1.321e+00   6.962e-01   0.000e+00
  -6.409e-01   1.480e+00   0.000e+00
  -6.242e-01   1.461e+00   0.000e+00
  -6.409e-01   1.480e+00   0.000e+00
  -6.242e-01   1.461e+00   0.000e+00
   9.278e-01   1.216e+00   0.000e+00
   8.937e-01   1.118e+00   0.000e+00
   9.278e-01   1.216e+00   0.000e+00
   8.937e-01   1.118e+00   0.000e+00
   8.857e-01   1.077e+00   0.000e+00
   8.937e-01   1.118e+00   0.000e+00
   8.857e-01   1.077e+00   0.000e+00
   8.937e-01   1.118e+00   0.000e+00
   1.241e+00  -7.375e-01   0.000e+00
   1.186e+00  -7.175e-01   0.000e+00
   1.241e+00  -7.375e-01   0.000e+00
   1.186e+00  -7.175e-01   0.000e+00
   9.399e-01  -6.850e-01   0.000e+00
   1.076e+00  -6.857e-01   0.000e+00
   9.399e-01  -6.850e-01   0.000e+00
   1.076e+00  -6.857e-01   0.000e+00
   1.385e+00   4.840e-01   0.000e+00
   1.258e+00   5.024e-01   0.000e+00
   1.385e+00   4.840e-01   0.000e+00
   1.258e+00   5.024e-01   0.000e+00
   9.793e-01   6.873e-01   0.000e+00
   9.857e-01   6.805e-01   0.000e+00
   9.793e-01   6.873e-01   0.000e+00
   9.857e-01   6.805e-01   0.000e+00
  -1.056e+00  -1.036e+00   0.000e+00
  -9.408e-01  -1.118e+00   0.000e+00
  -1.056e+00  -1.036e+00   0.000e+00
  -9.408e-01  -1.118e+00   0.000e+00
  -8.331e-01  -1.271e+00   0.000e+00
  -8.536e-01  -1.234e+00   0.000e+00
  -8.331e-01  -1.271e+00   0.000e+00
  -8.536e-01  -1.234e+00   0.000e+00
   4.942e-01  -1.081e+00   0.000e+00
   5.062e-01  -1.044e+00   0.000e+00
   4.942e-01  -1.081e+00   0.000e+00
   5.062e-01  -1.044e+00   0.000e+00
  -8.536e-01  -1.234e+00   0.000e+00
  -9.379e-01  -1.121e+00   0.000e+00
  -8.536e-01  -1.234e+00   0.000e+00
  -9.379e-01  -1.121e+00   0.000e+00
   5.696e-01  -9.196e-01   0.000e+00
   6.469e-01  -8.238e-01   0.000e+00
   5.696e-01  -9.196e-01   0.000e+00
   6.469e-01  -8.238e-01   0.000e+00
  -1.004e+00   5.821e-01   0.000e+00
  -1.178e+00   6.085e-01   0.000e+00
  -1.004e+00   5.821e-01   0.000e+00
  -1.178e+00   6.085e-01   0.000e+00
  -1.058e+00  -1.035e+00   0.000e+00
  -1.056e+00  -1.036e+00   0.000e+00
  -1.058e+00  -1.035e+00   0.000e+00
  -1.056e+00  -1.036e+00   0.000e+00
   4.827e-01  -1.228e+00   0.000e+00
   4.942e-01  -1.081e+00   0.000e+00
   4.827e-01  -1.228e+00   0.000e+00
   4.942e-01  -1.081e+00   0.000e+00
  -6.242e-01   1.461e+00   0.000e+00
  -5.637e-01   1.360e+00   0.000e+00
  -6.242e-01   1.461e+00   0.000e+00
  -5.637e-01   1.360e+00   0.000e+00
   8.906e-01   8.749e-01   0.000e+00
   8.901e-01   8.771e-01   0.000e+00
   8.906e-01   8.749e-01   0.000e+00
   8.901e-01   8.771e-01   0.000e+00
   1.186e+00  -7.175e-01   0.000e+00
   1.076e+00  -6.857e-01   0.000e+00
   1.186e+00  -7.175e-01   0.000e+00
   1.076e+00  -6.857e-01   0.000e+00
   1.258e+00   5.024e-01   0.000e+00
   1.202e+00   5.221e-01   0.000e+00
   1.258e+00   5.024e-01   0.000e+00
   1.202e+00   5.221e-01   0.000e+00
  -9.408e-01  -1.118e+00   0.000e+00
  -9.379e-01  -1.121e+00   0.000e+00
  -9.408e-01  -1.118e+00   0.000e+00
  -9.379e-01  -1.121e+00   0.000e+00
   6.469e-01  -8.238e-01   0.000e+00
   6.983e-01  -7.798e-01   0.000e+00
   6.469e-01  -8.238e-01   0.000e+00
   6.983e-01  -7.798e-01   0.000e+00
   1.202e+00   5.221e-01   0.000e+00
   1.100e+00   5.800e-01   0.000e+00
   1.202e+00   5.221e-01   0.000e+00
   1.100e+00   5.800e-01   0.000e+00
  -1.187e+00   6.114e-01   0.000e+00
  -1.178e+00   6.085e-01   0.000e+00
  -1.187e+00   6.114e-01   0.000e+00
  -1.178e+00   6.085e-01   0.000e+00
   7.862e-01  -7.276e-01   0.000e+00
   8.926e-01  -6.926e-01   0.000e+00
   7.862e-01  -7.276e-01   0.000e+00
   8.926e-01  -6.926e-01   0.000e+00
   9.399e-01  -6.850e-01   0.000e+00
   8.926e-01  -6.926e-01   0.000e+00
   9.399e-01  -6.850e-01   0.000e+00
   8.926e-01  -6.926e-01   0.000e+00
   5.062e-01  -1.044e+00   0.000e+00
   5.696e-01  -9.196e-01   0.000e+00
   5.062e-01  -1.044e+00   0.000e+00
   5.696e-01  -9.196e-01   0.000e+00
  -4.818e-01   1.182e+00   0.000e+00
  -4.820e-01   1.183e+00   0.000e+00
  -4.818e-01   1.182e+00   0.000e+00
  -4.820e-01   1.183e+00   0.000e+00
  -5.637e-01   1.360e+00   0.000e+00
  -4.831e-01   1.187e+00   0.000e+00
  -5.637e-01   1.360e+00   0.000e+00
  -4.831e-01   1.187e+00   0.000e+00
  -8.240e-01   6.128e-01   0.000e+00
  -9.674e-01   5.832e-01   0.000e+00
  -8.240e-01   6.128e-01   0.000e+00
  -9.674e-01   5.832e-01   0.000e+00
  -4.820e-01   1.183e+00   0.000e+00
  -4.831e-01   1.187e+00   0.000e+00
  -4.820e-01   1.183e+00   0.000e+00
  -4.831e-01   1.187e+00   0.000e+00
   9.857e-01   6.805e-01   0.000e+00
   1.100e+00   5.800e-01   0.000e+00
   9.857e-01   6.805e-01   0.000e+00
   1.100e+00   5.800e-01   0.000e+00
   9.793e-01   6.873e-01   0.000e+00
   9.762e-01   6.917e-01   0.000e+00
   9.793e-01   6.873e-01   0.000e+00
   9.762e-01   6.917e-01   0.000e+00
  -1.004e+00   5.821e-01   0.000e+00
  -9.674e-01   5.832e-01   0.000e+00
  -1.004e+00   5.821e-01   0.000e+00
  -9.674e-01   5.832e-01   0.000e+00
  -4.884e-01   9.887e-01   0.000e+00
  -4.907e-01   9.801e-01   0.000e+00
  -4.884e-01   9.887e-01   0.000e+00
  -4.907e-01   9.801e-01   0.000e+00
  -8.240e-01   6.128e-01   0.000e+00
  -7.835e-01   6.248e-01   0.000e+00
  -8.240e-01   6.128e-01   0.000e+00
  -7.835e-01   6.248e-01   0.000e+00
  -4.907e-01   9.801e-01   0.000e+00
  -5.600e-01   8.347e-01   0.000e+00
  -4.907e-01   9.801e-01   0.000e+00
  -5.600e-01   8.347e-01   0.000e+00
   6.983e-01  -7.798e-01   0.000e+00
   7.862e-01  -7.276e-01   0.000e+00
   6.983e-01  -7.798e-01   0.000e+00
   7.862e-01  -7.276e-01   0.000e+00
  -4.884e-01   9.887e-01   0.000e+00
  -4.828e-01   1.144e+00   0.000e+00
  -4.884e-01   9.887e-01   0.000e+00
  -4.828e-01   1.144e+00   0.000e+00
   9.096e-01   8.337e-01   0.000e+00
   9.762e-01   6.917e-01   0.000e+00
   9.096e-01   8.337e-01   0.000e+00
   9.762e-01   6.917e-01   0.000e+00
  -7.835e-01   6.248e-01   0.000e+00
  -7.587e-01   6.387e-01   0.000e+00
  -7.835e-01   6.248e-01   0.000e+00
  -7.587e-01   6.387e-01   0.000e+00
  -4.818e-01   1.182e+00   0.000e+00
  -4.828e-01   1.144e+00   0.000e+00
  -4.818e-01   1.182e+00   0.000e+00
  -4.828e-01   1.144e+00   0.000e+00
  -5.600e-01   8.347e-01   0.000e+00
  -6.103e-01   7.602e-01   0.000e+00
  -5.600e-01   8.347e-01   0.000e+00
  -6.103e-01   7.602e-01   0.000e+00
  -6.103e-01   7.602e-01   0.000e+00
  -6.527e-01   7.133e-01   0.000e+00
  -6.103e-01   7.602e-01   0.000e+00
  -6.527e-01   7.133e-01   0.000e+00
  -7.587e-01   6.387e-01   0.000e+00
  -6.527e-01   7.133e-01   0.000e+00
  -7.587e-01   6.387e-01   0.000e+00
  -6.527e-01   7.133e-01   0.000e+00

CELLS 1912 7798
         3       136        45         6
         3       137       136        46
         3       141       140        50
         3       100         9        53
         3       101        10        56
         3       102        11        58
         3       355       237       309
         3       428       364       298
         3       282       199       257
         3       495       932       933
         4       934       427       461       935
         3       161        70        71
         3       163        72        73
         3       243       163       164
         3       185        77        78
         3       207        80        21
         3       167       166        83
         3       125        33        34
         3       127        35        36
         3       130         3       113
         3       132        40        41
         3       135        43         5
         3       115        23        86
         3       248       170       171
         3       117        25        91
         3       118        26        93
         3       283       239       200
         3       183        29       121
         3       122       121        30
         3       123         0       110
         3       217       122       123
         3       218       124       125
         3       126         1       111
         3       364       219       298
         3       128         2       112
         3       220       127       128
         3       378       268       324
         3       113         3        39
         3       133         4       114
         3       222       131       132
         3       134        42        43
         3       191         5        44
         3       192        45       136
         3       134       114        42
         3       135       134        43
         3       138        47        48
         3       192       191        44
         3       193         7        49
         3       138       137        47
         3       259       140       230
         3       143       142        52
         3       143         9       100
         3       144        53        54
         3       146        10       101
         3       232       144       145
         3       147        56        57
         3       234       147       148
         3       149        58        59
         3       235       149       150
         3       152        61        62
         3       236       151       152
         3       153        13       104
         3       155        14       105
         3       238       154       155
         3       157        15       106
         3       239       156       157
         3       159        68        69
         3       240       158       159
         3       160        16       107
         3       162        17       108
         3       242       201       161
         3       164        18       109
         3       109        18        74
         3       202        75        76
         3       203       202        76
         3       204        77       185
         3       206        79       186
         3       289       186       207
         3       207       186        80
         3       208        81       165
         3       165        81        82
         3       166        82        83
         3       166       165        82
         3       169       168        85
         3       169        23       115
         3       246       166       167
         3       116        24        88
         3       265       243       109
         3       174        25       117
         3       249       172       173
         3       375       250       316
         3       251       175       176
         3       321       264       262
         3       559       543       521
         3       180        96        97
         3       253       179       180
         3       181        28       120
         3       255       182       183
         3       322       216       293
         3       145        54        55
         3       221       213       129
         3       148        11       102
         3       129        37        38
         3       150        12       103
         3       545       451       504
         3       103        12        60
         3       151        60        61
         3       104        13        63
         3       154        63        64
         3       105        14        65
         3       156        65        66
         3       106        15        67
         3       158        67        68
         3       252       214       177
         3       107        16        70
         3       108        17        72
         3       264       209       262
         3       215        74        75
         3       265       109       215
         3       110         0        32
         3       124        32        33
         3       111         1        35
         3       379       355       309
         3       112         2        37
         3       323       213       294
         3       131        39        40
         3       190       113       131
         3       114         4        42
         3       224       114       134
         3       170        86        87
         3       171        24       116
         3       172        88        89
         3       173        89        90
         3       175        91        92
         3       176        26       118
         3       177        93        94
         3       178        27       119
         3       119        27        95
         3       179        95        96
         3       120        28        98
         3       182        98        99
         3       121        29        30
         3       122        30        31
         3       123       122        31
         3       217       216       122
         3       123        31         0
         3       217       110       188
         3       124       110        32
         3       125       124        33
         3       126       125        34
         3       219       125       126
         3       126        34         1
         3       219       111       189
         3       127       111        35
         3       128       127        36
         3       128        36         2
         3       220       112       213
         3       129       112        37
         3       130       129        38
         3       130        38         3
         3       221       113       190
         3       131       113        39
         3       132       131        40
         3       133       132        41
         3       223       132       133
         3       133        41         4
         3       223       133       114
         3       136         6        46
         3       225       134       135
         3       137        46        47
         3       223       222       132
         3       139        48         7
         3       227       226       137
         3       140        49        50
         3       304       226       227
         3       139       138        48
         3       324       225       300
         3       141        50         8
         3       268       224       225
         3       229         8        51
         3       269       223       224
         3       271       229       142
         3       271       142       231
         3       142        51        52
         3       231       143       100
         3       143        52         9
         3       231       100       194
         3       144       100        53
         3       145       144        54
         3       146       145        55
         3       233       145       146
         3       146        55        10
         3       233       101       195
         3       147       101        56
         3       148       147        57
         3       148        57        11
         3       234       102       196
         3       149       102        58
         3       150       149        59
         3       150        59        12
         3       235       103       197
         3       151       103        60
         3       152       151        61
         3       153       152        62
         3       237       152       153
         3       153        62        13
         3       237       104       198
         3       154       104        63
         3       155       154        64
         3       155        64        14
         3       238       105       199
         3       156       105        65
         3       157       156        66
         3       157        66        15
         3       239       106       200
         3       158       106        67
         3       159       158        68
         3       160       159        69
         3       241       159       160
         3       160        69        16
         3       241       107       201
         3       161       107        70
         3       162       161        71
         3       162        71        17
         3       242       108       184
         3       163       108        72
         3       164       163        73
         3       164        73        18
         3       243       164       109
         3       260       206       186
         3       167        83        22
         3       244        22        84
         3       331       289       275
         3       246       245       166
         3       273       168       247
         3       168        84        85
         3       247       169       115
         3       169        85        23
         3       247       115       187
         3       170       115        86
         3       171       170        87
         3       171        87        24
         3       248       116       209
         3       172       116        88
         3       173       172        89
         3       174       173        90
         3       250       173       174
         3       174        90        25
         3       250       117       210
         3       175       117        91
         3       176       175        92
         3       176        92        26
         3       251       118       214
         3       177       118        93
         3       178       177        94
         3       178        94        27
         3       252       119       211
         3       179       119        95
         3       180       179        96
         3       181       180        97
         3       254       180       181
         3       181        97        28
         3       254       120       212
         3       182       120        98
         3       183       182        99
         3       183        99        29
         3       255       121       216
         3       242       161       162
         3       184       108       163
         3       326       936       937
         4       938       243       265       939
         3       205        78        20
         3       186        79        80
         3       290       208       165
         3       187       115       170
         3       209       116       172
         3       412       335       267
         3       188       110       124
         3       189       111       127
         3       462       328       446
         3       270       223       269
         3       221       129       130
         3       191       135         5
         3       192        44        45
         3       400       300       301
         3       228       138       139
         3       193       139         7
         3       193        49       140
         3       194       100       144
         3       327       233       308
         3       195       101       147
         3       196       102       149
         3       197       103       151
         3       279       234       266
         3       280       276       197
         3       381       281       276
         3       198       104       154
         3       382       257       319
         3       199       105       156
         3       394       393       310
         3       200       106       158
         3       330       201       285
         3       201       107       161
         3       311       285       242
         3       286       202       274
         3       203        76        19
         3       204       203        19
         3       288       205       272
         3       204        19        77
         3       272       205       206
         3       205       185        78
         3       206       205        20
         3       206        20        79
         3       331       325       289
         3       208       207        21
         3       245       165       166
         3       208        21        81
         3       290       275       208
         3       210       117       175
         3       264       248       209
         3       214       118       177
         3       387       295       334
         3       211       119       179
         3       377       254       318
         3       212       120       182
         3       332       217       297
         3       333       221       299
         3       213       112       129
         3       334       252       317
         3       252       177       178
         3       215       109        74
         3       215        75       202
         3       216       121       122
         3       293       216       217
         3       217       123       110
         3       297       188       258
         3       218       188       124
         3       219       218       125
         3       219       126       111
         3       335       189       267
         3       220       189       127
         3       220       128       112
         3       221       130       113
         3       277       222       270
         3       222       190       131
         3       300       135       191
         3       301       191       192
         3       224       223       114
         3       302       136       226
         3       225       224       134
         3       226       136       137
         3       227       137       138
         3       303       193       259
         3       230       140       141
         3       228       227       138
         3       305       227       228
         3       336       259       230
         3       496       400       366
         3       229       141         8
         3       229        51       142
         3       306       141       229
         3       385       336       348
         3       231       142       143
         3       307       194       278
         3       232       194       144
         3       233       232       145
         3       233       146       101
         3       338       195       279
         3       234       195       147
         3       234       148       102
         3       235       196       149
         3       235       150       103
         3       236       197       151
         3       237       236       152
         3       237       153       104
         3       339       198       256
         3       238       198       154
         3       238       155       105
         3       239       199       156
         3       239       157       106
         3       240       200       158
         3       241       240       159
         3       241       160       107
         3       284       283       200
         3       242       162       108
         3       311       184       261
         3       243       184       163
         3       340       940       941
         4       942       265       286       943
         3       244       167        22
         3       244        84       168
         3       313       167       244
         3       314       245       246
         3       273       244       168
         3       386       374       361
         3       247       168       169
         3       291       187       248
         3       248       187       170
         3       248       171       116
         3       249       209       172
         3       250       249       173
         3       250       174       117
         3       341       210       263
         3       251       210       175
         3       251       176       118
         3       252       178       119
         3       317       211       292
         3       253       211       179
         3       254       253       180
         3       254       181       120
         3       342       212       296
         3       255       212       182
         3       255       183       121
         3       329       282       257
         3       256       198       238
         3       450       384       362
         3       257       199       239
         3       276       235       197
         3       258       188       218
         3       343       259       336
         3       259       193       140
         3       344       274       312
         3       272       206       260
         3       345       241       310
         3       261       184       243
         3       441       357       393
         3       262       209       249
         3       263       210       251
         3       295       251       214
         3       315       247       187
         3       291       248       264
         3       274       202       203
         3       312       203       204
         3       266       234       196
         3       281       196       235
         3       267       189       220
         3       419       346       320
         3       337       304       305
         3       269       224       268
         3       346       269       320
         3       270       222       223
         3       346       270       269
         3       277       190       222
         3       348       306       271
         3       307       231       194
         3       288       287       185
         3       325       260       289
         3       350       313       273
         3       315       187       291
         3       351       286       274
         3       389       944       945
         4       946       351       344       947
         3       275       207       208
         3       353       331       275
         3       280       197       236
         3       356       276       280
         3       365       277       347
         3       299       190       277
         3       278       194       232
         3       390       266       328
         3       279       195       234
         3       391       279       354
         3       355       236       237
         3       356       280       355
         3       281       266       196
         3       281       235       276
         3       282       256       238
         3       282       238       199
         3       283       257       239
         3       284       200       240
         3       408       392       285
         3       393       284       345
         3       285       201       242
         3       394       330       392
         3       286       265       215
         3       286       215       202
         3       287       204       185
         4       443       389       949       948
         3       950       951       406
         3       288       185       205
         3       349       260       325
         3       289       260       186
         3       289       207       275
         3       290       165       245
         3       360       353       290
         3       361       264       321
         3       396       315       374
         3       292       211       253
         3       410       397       332
         3       417       342       296
         3       322       296       255
         3       399       323       294
         3       294       213       221
         3       362       251       295
         3       334       214       252
         3       342       318       254
         3       296       212       255
         3       297       217       188
         3       363       297       258
         3       364       218       219
         3       335       219       189
         3       299       221       190
         3       347       270       346
         3       300       225       135
         3       301       300       191
         3       302       301       192
         3       400       301       366
         3       302       192       136
         3       367       226       304
         3       303       228       139
         3       303       139       193
         3       368       303       343
         3       305       304       227
         3       348       230       306
         3       546       486       536
         3       306       230       141
         3       306       229       271
         3       369       231       307
         3       370       307       278
         3       401       327       308
         3       308       233       195
         3       339       237       198
         3       415       339       256
         3       393       345       310
         3       310       241       201
         3       311       242       184
         4       402       952       953       326
         3       954       955       261
         3       312       274       203
         3       312       204       287
         3       313       246       167
         3       313       244       273
         3       422       372       350
         3       372       313       350
         3       373       247       315
         3       361       291       264
         3       375       249       250
         3       341       250       210
         3       317       252       211
         3       376       317       292
         3       377       253       254
         3       342       254       212
         3       319       257       283
         3       357       283       284
         3       420       403       333
         3       320       269       268
         3       375       321       262
         3       444       404       341
         3       322       255       216
         3       405       293       397
         3       323       267       220
         3       323       220       213
         3       324       268       225
         3       366       301       302
         3       406       344       352
         3       349       272       260
         3       326       956       957
         4       958       959       261       243
         4       340       326       960       961
         3       962       963       265
         3       327       278       232
         3       327       232       233
         3       517       462       446
         3       328       266       281
         3       438       377       318
         3       407       282       329
         3       330       310       201
         3       408       311       371
         3       353       275       290
         3       472       423       426
         3       332       293       217
         3       410       297       363
         3       333       294       221
         3       347       277       270
         3       411       317       376
         3       334       295       214
         3       335       298       219
         3       399       267       323
         3       413       336       385
         3       348       336       230
         3       400       378       324
         3       414       305       368
         3       338       308       195
         3       354       279       266
         3       339       309       237
         3       415       256       407
         3       352       312       287
         3       480       418       395
         3       341       316       250
         3       444       263       384
         3       405       322       293
         3       417       296       405
         3       413       368       343
         3       343       303       259
         3       358       287       288
         3       418       358       395
         3       345       284       240
         3       345       240       241
         3       489       370       401
         3       445       320       378
         3       420       299       365
         3       365       299       277
         3       421       271       369
         3       487       369       432
         3       359       272       349
         3       423       331       353
         3       436       422       350
         3       373       350       273
         3       964       965       340
         4       351       967       966       286
         3       351       274       344
         3       352       344       312
         3       358       352       287
         3       360       290       245
         3       426       353       360
         3       547       483       532
         3       433       401       308
         3       355       280       236
         3       424       309       339
         3       379       356       355
         3       446       381       356
         3       371       311       261
         3       357       319       283
         3       359       358       288
         3       490       447       402
         3       359       288       272
         3       968       969       443
         4       448       971       970       406
         3       360       245       314
         3       449       314       422
         3       374       291       361
         3       571       513       514
         3       362       263       251
         3       450       362       295
         3       364       363       258
         3       498       397       473
         3       364       258       218
         3       428       298       380
         3       590       534       584
         3       412       267       399
         3       367       366       302
         3       431       430       367
         3       367       302       226
         3       431       304       337
         3       368       305       228
         3       368       228       303
         3       369       271       231
         3       432       307       370
         3       401       278       327
         3       433       338       391
         3       434       402       326
         4       435       973       972       389
         3       974       975       351
         3       372       314       246
         3       372       246       313
         3       373       273       247
         3       374       315       291
         3       499       471       442
         3       453       374       386
         3       375       262       249
         3       437       316       404
         3       377       376       292
         3       454       438       398
         3       377       292       253
         3       438       318       398
         3       419       388       346
         3       378       320       268
         3       611       561       524
         3       462       390       328
         3       456       428       380
         3       380       298       335
         3       381       328       281
         3       381       276       356
         3       382       329       257
         3       457       319       383
         3       458       386       427
         3       383       319       357
         3       384       263       362
         3       450       295       387
         3       459       413       385
         3       460       348       421
         3       427       361       321
         3       461       321       437
         3       411       387       334
         3       474       387       411
         3       429       347       388
         3       388       347       346
         3       395       358       359
         3       425       359       349
         3       390       354       266
         3       446       328       381
         3       391       338       279
         3       506       354       439
         3       392       330       285
         3       976       977       447
         4       463       371       979       978
         3       393       357       284
         3       394       310       330
         3       464       392       463
         3       465       393       394
         3       416       325       409
         3       409       325       331
         3       436       373       396
         3       396       373       315
         3       635       559       620
         3       397       293       332
         3       466       382       457
         3       398       318       342
         3       403       294       333
         3       403       399       294
         3       400       324       300
         3       496       440       400
         3       401       370       278
         3       433       308       338
         3       402       980       981
         4       982       983       371       261
         3       434       326       340
         3       467       365       429
         4       520       501       985       984
         3       986       987       468
         3       437       375       316
         3       404       316       341
         3       405       296       322
         3       469       405       397
         3       988       989       389
         4       406       991       990       344
         3       418       406       352
         3       407       256       282
         3       470       329       466
         3       408       285       311
         3       463       408       371
         3       442       409       423
         3       523       426       449
         3       410       332       297
         3       482       363       428
         3       411       334       317
         3       474       411       376
         3       412       380       335
         3       475       992       993
         4       994       399       403       995
         3       505       476       414
         3       413       343       336
         3       414       337       305
         3       414       368       413
         3       466       329       382
         3       502       415       470
         3       471       409       442
         3       416       349       325
         3       469       417       405
         3       417       398       342
         3       418       352       358
         3       523       503       472
         3       485       431       337
         3       591       564       550
         3       420       333       299
         3       429       365       347
         3       421       348       271
         3       432       369       307
         3       422       314       372
         3       481       422       436
         3       423       409       331
         3       426       423       353
         3       424       379       309
         3       424       339       415
         3       425       395       359
         3       425       349       416
         3       426       360       314
         3       492       396       453
         3       461       427       321
         3       427       386       361
         3       482       473       363
         3       428       363       364
         3       467       420       365
         3       504       419       445
         3       430       366       367
         3       505       414       413
         3       431       367       304
         3       476       337       414
         3       516       487       432
         3       487       421       369
         3       506       391       354
         3       489       401       433
         3       435       434       340
         3       491       490       434
         4       435       340       996       997
         3       998       999       351
         3       491       389       443
         3       436       350       373
         3       453       396       374
         3       437       321       375
         3       493       461       437
         3       494       474       376
         3       438       376       377
         3       475      1000      1001
         4      1002      1003       412       399
         3       439       354       390
         3       445       378       440
         3       440       378       400
         4       447      1004      1005       402
         3      1006      1007       371
         3       441       383       357
         3       551       491       539
         3       499       452       478
         4       538       443      1008      1009
         3      1010      1011       448
         3       448       406       418
         3       444       341       263
         3       509       444       384
         3       549       545       504
         3       445       419       320
         3       455       356       379
         3       455       446       356
         3      1012      1013       447
         4       518       463      1014      1015
         3       490       402       434
         3       452       395       425
         3       508       452       499
         3       449       426       314
         3       492       481       436
         3       510       387       474
         3       509       493       404
         3       484       388       451
         3       451       388       419
         3       478       425       416
         3       499       478       471
         3       511       386       458
         3       503       499       442
         3       479       398       417
         3       592       560       552
         3       477       379       424
         3       618       607       573
         3       468       380       412
         3       553       502       522
         3       457       382       319
         3       514       383       441
         3       554      1016      1017
         4      1018       493       509      1019
         3       519       441       465
         3       515       385       460
         3       486       432       370
         3       460       385       348
         3       516       432       486
         3       493       437       404
         3       509       404       444
         3       462       439       390
         3       517       446       455
         3       555       447       507
         3       463       392       408
         3       513       500       457
         3       464       394       392
         3       465       441       393
         3       465       394       464
         3       593       477       553
         3       470       407       329
         3       483      1020      1021
         4      1022       420       467      1023
         3       484       429       388
         3       468       456       380
         4       520      1025      1024       475
         3      1026      1027       412
         3       528       521       479
         3       473       397       410
         3       522       466       500
         3       470       415       407
         3       471       416       409
         3       503       442       472
         3       472       442       423
         3       529       523       449
         3       473       410       363
         3      1028      1029       501
         4       531       456      1031      1030
         3       494       376       438
         4       554       542      1033      1032
         3      1034      1035       493
         3       483      1036      1037
         4      1038      1039       403       420
         4       525      1041      1040       483
         3      1042      1043       403
         3       485       430       431
         3       526       337       476
         3       527       379       477
         3       477       424       415
         3       478       452       425
         3       478       416       471
         3       479       454       398
         3       528       417       469
         3       480       448       418
         3       480       395       452
         3       529       422       481
         3       540       453       511
         3       482       428       456
         3       636       501       520
         3       532      1044      1045
         4      1046       429       484      1047
         3       532      1048      1049
         4      1050      1051       467       429
         3       545       533       451
         3       557       475       525
         3       534       504       445
         3       535       496       430
         3       537       489       433
         4       637       612      1053      1052
         3      1054      1055       607
         3       515       460       487
         3       487       460       421
         3       488       433       391
         3      1056      1057       558
         4       565      1058      1059       506
         3       536       370       489
         3       537       433       488
         3       491       434       435
         3       508       448       480
         3       491       435       389
         3       595       508       566
         3       492       436       396
         3       511       453       386
         3       541       384       450
         3       542      1060      1061
         4      1062      1063       461       493
         3       494       438       454
         3       642       635       620
         3       560       495       552
         3       495      1064      1065
         4      1066      1067       458       427
         3       496       366       430
         3       535       430       485
         4       784       773      1069      1068
         3      1070      1071       765
         3       497       439       462
         3       561       473       524
         3       498       469       397
         3       563       499       503
         3       508       480       452
         3       500       466       457
         3       513       457       383
         3       501      1072      1073
         4      1074      1075       456       468
         3       682       677       594
         3       502       477       415
         3       522       470       466
         3       562       529       481
         3       580       530       540
         3       504       451       419
         3       534       445       440
         3       505       413       459
         3       564       505       459
         3       506       488       391
         3       565       439       497
         3       507       447       490
         3       639       566       598
         3       538      1076      1077
         4      1078       448       508      1079
         3       566       499       563
         3       510       450       387
         3       541       450       510
         3       567       474       512
         3       613       567       512
         3       540       530       492
         4       560      1081      1080       495
         3      1082      1083       458
         3       512       474       494
         3       543       454       521
         3       519       465       464
         3       514       513       383
         3       600       519       575
         3       570       514       519
         3       572       487       516
         3       515       459       385
         3       546       516       486
         3       572       550       515
         3       573       462       517
         3       574       455       527
         3       518       464       463
         3       713       673       675
         3       519       514       441
         3       575       464       518
         3       520      1084      1085
         4      1086       468       412      1087
         3       557       520       475
         3       521       454       479
         3       579       528       469
         3       522       502       470
         3       577       500       548
         3       523       472       426
         3       530       481       492
         3       524       473       482
         3       531       524       482
         4       525       475      1088      1089
         3      1090      1091       403
         4       532       483      1092      1093
         3      1094      1095       467
         3       526       485       337
         3       564       459       550
         3       527       455       379
         3       553       477       502
         3       528       479       417
         3       579       469       498
         3       529       449       422
         3       562       481       530
         3       588       580       540
         3      1096      1097       610
         4       634       569      1099      1098
         3       531       482       456
         3       640       582       594
         3       583      1100      1101
         4      1102       484       533      1103
         3       547       525       483
         3       533       484       451
         3       641       549       590
         3       630       584       535
         3       585       485       526
         3       584       496       535
         3       602       526       578
         3       536       486       370
         3       586       489       537
         3       558      1104      1105
         4      1106      1107       488       506
         4       631       603      1109      1108
         3      1110      1111       586
         3       566       508       499
         3       539       443       538
         3       604       551       539
         3       539       491       443
         3       540       492       453
         3      1112      1113       560
         4       569       458      1114      1115
         3       589      1116      1117
         4      1118       509       541      1119
         3       541       509       384
         4       614       589      1121      1120
         3      1122      1123       568
         4       542       495      1124      1125
         3      1126      1127       461
         3       543       512       494
         3       543       494       454
         3       642       620       624
         3       544       512       543
         3       549       504       534
         3       715       691       681
         3       586       536       489
         3       679       672       612
         3       608       557       547
         4       583       532      1128      1129
         3      1130      1131       484
         3       548       500       513
         3       644       609       605
         3       657       641       590
         3       550       459       515
         3       572       515       487
         3       601       596       545
         3       551       507       490
         3       551       490       491
         3       552       495       542
         3       609       542       554
         3       593       574       527
         3       577       522       500
         3       568       510       567
         3       645       605       614
         4       555      1133      1132       447
         3      1134      1135       518
         3       633       604       539
         3       556       524       531
         4       582      1137      1136       501
         3      1138      1139       531
         3       636       594       501
         3       557       525       547
         3       558      1140      1141
         4      1142      1143       537       488
         3       607       497       573
         3       559       544       543
         3       579       576       528
         3       610       560       592
         3       569       511       458
         3       561       498       473
         3       611       524       556
         3       581       523       562
         3       562       523       529
         3       680       615       654
         3       581       503       523
         3       578       476       564
         3       564       476       505
         3       565       506       439
         3       612      1144      1145
         4      1146      1147       497       607
         3      1148      1149       587
         4       595      1150      1151       508
         4       587       538      1152      1153
         3      1154      1155       508
         3       567       510       474
         3       613       599       567
         3       614       605       589
         3       568       541       510
         3       646       625       580
         3       588       511       569
         3       615       571       570
         3       619      1156      1157
         4      1158       575       518      1159
         3       571       548       513
         3       571       514       570
         3       616       516       546
         4       647      1160      1161       603
         3      1162      1163       546
         3       573       497       462
         3       618       517       574
         3       574       517       455
         3       652       593       553
         3       575       519       464
         4       619      1165      1164       555
         3      1166      1167       518
         3       620       521       576
         3       576       521       528
         3       621       522       577
         3       622       548       615
         3       591       578       564
         3       578       526       476
         3       623       498       561
         3       648       623       611
         3       649       581       627
         3       625       530       580
         3       626       503       581
         3       625       562       530
         3       650       628       583
         3       582      1168      1169
         4      1170      1171       556       531
         3       628       532       583
         3       629       533       596
         3       584       534       440
         3       584       440       496
         3       681       641       657
         3       585       535       485
         3       586       546       536
         4       631      1173      1172       558
         3      1174      1175       537
         3       604       507       551
         3       633       538       587
         3       588       540       511
         4       610      1176      1177       560
         3      1178      1179       569
         4       589       554      1180      1181
         3      1182      1183       509
         3       589      1184      1185
         4      1186       541       568      1187
         3       590       549       534
         3       630       535       585
         3       647      1188      1189
         4      1190      1191       616       546
         3       603      1192      1193
         4      1194      1195       546       586
         4       665       614      1197      1196
         3      1198      1199       599
         3       748       692       730
         3       593       527       477
         3       652       553       621
         3       594       582       501
         3       682       636       557
         3       598       566       563
         3       639       595       566
         3       596       533       545
         3       601       545       549
         3       717       640       677
         4       597      1201      1200       582
         3      1202      1203       556
         3       654       570       600
         3       655       563       626
         3       599       568       567
         3       664       613       544
         3       600       570       519
         3       632       619       555
         3       657       590       630
         3       684       617       651
         3       602       585       526
         3       658       578       591
         3       617       550       572
         3       612      1204      1205
         4      1206      1207       565       497
         3       632       507       604
         3       653       595       639
         3       659       552       609
         3       605       554       589
         3       694       635       642
         3       606       544       559
         3       618       573       517
         3       685       618       667
         3       628       608       547
         4       650       583      1209      1208
         3      1210      1211       629
         3       609       552       542
         3       609       554       605
         3       634       588       569
         3       661       610       592
         3       624       579       623
         3      1212      1213       597
         4       662       556      1214      1215
         3       672       663       631
         4       612       558      1216      1217
         3      1218      1219       565
         3       613       512       544
         3       664       656       613
         3       614      1220      1221
         4      1222       568       599      1223
         3       645       644       605
         3       686       644       645
         3       615       548       571
         3       617       572       616
         3       616       572       516
         3       766       647       603
         3       666       550       617
         3       667       593       652
         3       669       652       621
         3      1224      1225       619
         4       668       575      1226      1227
         3       632       555       507
         3       620       559       521
         3       624       576       579
         3       621       553       522
         3       669       577       622
         3       718       667       708
         3       622       577       548
         3       623       579       498
         3       623       561       611
         3       648       642       624
         3       624       620       576
         3       627       562       625
         3       634       580       588
         3       626       563       503
         3       627       581       562
         3       688       580       634
         3       649       627       646
         3       628       547       532
         3      1228      1229       583
         4       629      1231      1230       533
         3       670       596       638
         3       689      1232      1233
         4      1234       629       670      1235
         3       630       590       584
         3       671       585       602
         3       631      1236      1237
         4      1238       586       537      1239
         3       672       558       612
         3       675       673       604
         3       745       711       712
         3       633       539       538
         4       675       587      1241      1240
         3      1242      1243       653
         3       676       610       661
         4       676      1245      1244       610
         3      1246      1247       634
         3       706       642       648
         3       635       606       559
         3       636       520       557
         3       682       557       608
         3       719       663       679
         3       660       607       618
         3       638       596       601
         3       691       641       681
         3      1248      1249       587
         4       653      1251      1250       595
         3       692       598       655
         3       640       597       582
         3       717       677       693
         3       641       601       549
         3       671       630       585
         3       648       624       623
         3       694       690       635
         3       643       622       615
         3       654       615       570
         3       749       737       728
         3       695       644       686
         4       696       665      1253      1252
         3      1254      1255       656
         3       697       645       665
         3       698       649       646
         3       646       627       625
         3      1256      1257       647
         4       651       616      1258      1259
         3       766       687       647
         3       662       611       556
         3       662       648       611
         3       655       626       649
         3       649       626       581
         3       650       608       628
         3       670       629       596
         3       701       657       671
         3       651       617       616
         3       667       574       593
         3       669       621       577
         3       675       604       633
         3       692       639       598
         3       668       654       600
         3       674       619       632
         3       772       730       698
         3       655       598       563
         3       656       599       613
         3       707       700       664
         3       658       602       578
         3       701       671       658
         3       702       591       666
         3       720       666       684
         3       659       592       552
         3       659       609       644
         3       721       660       685
         3      1260      1261       637
         4       660      1263      1262       607
         3       704       676       661
         3       759       592       659
         4      1264       597       683      1265
         3       705      1266      1267
         3       706       648       662
         3       663       603       631
         3       679       663       672
         3       664       544       606
         3       778       739       706
         3       665       645       614
         3       665      1268      1269
         4      1270       599       656      1271
         3       666       591       550
         3       751       720       684
         3       667       618       574
         3       708       652       669
         3       668       600       575
         3       674       632       673
         3       709       622       643
         3       742       708       669
         3       710       670       638
         3       731       693       650
         3       671       657       630
         3       671       602       658
         3       672       631       558
         3       679       612       637
         3       673       632       604
         3       678       674       673
         3       712       711       668
         4      1272       619       674      1273
         3       712      1274      1275
         3       675       633       587
         3       722       653       699
         3       752       726       745
         3       723       646       688
         3       677       640       594
         3       693       608       650
         3       699       639       692
         3       813       748       772
         3       724       637       703
         3       725       681       701
         3       680       643       615
         3       726       654       711
         3       770       715       725
         3       753       744       715
         3       682       608       677
         3       682       594       636
         3       798       778       756
         3       683       597       640
         3       684       666       617
         4       727      1276      1277       687
         3      1278      1279       651
         3       685       660       618
         3       708       667       652
         3       728       695       686
         3      1280      1281       696
         4       700      1283      1282       656
         4       687      1285      1284       647
         3      1286      1287       651
         3       755       679       724
         3       688       646       580
         3      1288      1289       676
         4       714       634      1290      1291
         4       689       650      1292      1293
         3      1294      1295       629
         3       729       670       710
         3      1296      1297       696
         4       734      1299      1298       700
         3       690       606       635
         3       691       638       601
         3       691       601       641
         3       698       655       649
         3       730       655       698
         3       693       677       608
         3       731       650       689
         3       756       740       705
         3       739       732       694
         3       759       695       737
         3       695       659       644
         3       733       697       696
         3       700       656       664
         3       697       686       645
         3       697       665       696
         3       723       688       714
         3      1300      1301       676
         4       747       714      1302      1303
         3       786       745       763
         3       699       653       639
         3       707       664       606
         3       741       734       707
         3       701       681       657
         3       735       658       702
         3       702       658       591
         3       771       727       687
         4       703       637      1304      1305
         3      1306      1307       660
         3       787       769       758
         3       736       680       726
         3       759       737       661
         3      1308      1309       597
         4       705       662      1310      1311
         3       828       810       803
         3       739       642       706
         3       740       662       705
         3       707       606       690
         3       741       690       732
         3       709       669       622
         3       742       669       709
         3       760       709       743
         3      1312      1313       758
         4       761      1314      1315       721
         3       744       691       715
         3       754       710       744
         3       711       654       668
         3      1316      1317       674
         4       763       712      1318      1319
         3      1320      1321       619
         4       712       668      1322      1323
         4      1324       674       678      1325
         3       763      1326      1327
         3       746       673       713
         4       713       675      1328      1329
         3      1330      1331       653
         3       714       688       634
         4      1332       676       704      1333
         3       747      1334      1335
         3       764       701       735
         3       814       790       794
         3       802       789       767
         3       716       699       692
         3      1336      1337       731
         4       765      1338      1339       729
         3       717       683       640
         3       721       685       718
         3       718       685       667
         3       771       766       719
         3       724       679       637
         3       720       702       666
         3       727      1340      1341
         4      1342      1343       684       651
         3       743       643       736
         3      1344      1345       703
         4       721      1347      1346       660
         3      1348      1349       713
         4       722      1351      1350       653
         3       767       699       716
         3       768       714       747
         3       723       698       646
         4       758       703      1353      1352
         3      1354      1355       721
         3       790       725       764
         3       725       715       681
         3       775       720       751
         3       815       763       757
         3       726       680       654
         3      1356      1357       727
         4       751       684      1358      1359
         3       771       687       766
         3       853       827       789
         3       733       686       697
         3      1360      1361       689
         4       729      1363      1362       670
         3       781       743       736
         3       730       692       655
         3       772       698       723
         3       773       693       731
         4       731       689      1365      1364
         3      1366      1367       729
         3       776       749       728
         3       732       690       694
         3       733       728       686
         3      1368      1369       696
         4       774      1371      1370       734
         3       734       700       707
         3       823       774       734
         3       735       701       658
         3       775       702       720
         3       736       643       680
         3      1372      1373       733
         4       792      1374      1375       774
         3       737       704       661
         3       737       695       728
         3      1376      1377       683
         4       738       705      1378      1379
         3       777       683       717
         3       739       694       642
         3       778       706       740
         3       740       706       662
         3       756       705       738
         3       741       707       690
         3       779       741       732
         3       780       708       742
         3       743       709       643
         3      1380      1381       784
         4       839       807      1383      1382
         3       833       799       809
         3       744       710       638
         3       744       638       691
         3       745       726       711
         4      1384       678       746      1385
         3       757      1386      1387
         3       746       678       673
         3      1388      1389       713
         4       782      1391      1390       722
         3       793       768       747
         4      1392       704       749      1393
         3       783      1394      1395
         3       748       716       692
         3       793       747       783
         3       749       704       737
         3       776       728       733
         3       818       752       786
         3       750       732       739
         3       755       719       679
         3       794       764       775
         3       837       802       785
         3       752       736       726
         3       769       724       703
         3       754       744       753
         3       816       797       807
         3       762       710       754
         3       820       804       788
         3       769       703       758
         3       801       762       795
         3       798       756       797
         4      1396      1397       746       713
         3       782      1398      1399
         3      1400      1401       749
         4       812      1402      1403       791
         3       761       721       718
         4      1404       787       758      1405
         3       799      1406      1407
         3       759       661       592
         3       759       659       695
         3       760       742       709
         3       800       743       781
         3       780       718       708
         3       780       761       718
         3       801       765       762
         3       762       729       710
         3       763       745       712
         3      1408      1409       678
         4       763      1410      1411       757
         3       764       725       701
         3       775       764       735
         3       777       717       773
         3       765       729       762
         3       766       603       663
         3       766       663       719
         3       767       722       699
         3       785       716       748
         3       768       723       714
         3      1412      1413       704
         4       783       747      1414      1415
         3       844       841       803
         3       769       755       724
         3       822       771       804
         3       770       753       715
         4       771      1417      1416       727
         3      1418      1419       751
         3       804       719       755
         3       772       748       730
         3       805       723       768
         3       773       717       693
         4       773       731      1421      1420
         3      1422      1423       765
         4      1424      1425       733       696
         3       774      1426      1427
         3       823       792       774
         3       775       735       702
         3       806       775       751
         3       779       734       741
         3       824       811       818
         3       784       777       773
         4       777      1429      1428       683
         3      1430      1431       738
         3       778       750       739
         3       778       740       756
         3       808       732       750
         3       825       797       816
         3       780       742       760
         3       809       780       760
         3       803       753       770
         3       811       736       752
         3      1432      1433       746
         4       782       757      1434      1435
         3       782       722       767
         4      1436       749       776      1437
         3       791      1438      1439
         3       826       805       793
         3      1440      1441       777
         4       807       738      1442      1443
         3       807       797       738
         3       789       782       767
         3       802       716       785
         3       786       752       745
         3       842       786       815
         3       828       821       810
         3      1444      1445       758
         4       799      1447      1446       761
         3       788       755       769
         3       788       769       787
         3       789       757       782
         3       829       783       812
         3       794       790       764
         3       790       770       725
         3      1448      1449       776
         4       830      1450      1451       792
         3       865       864       856
         4      1452      1453       776       733
         3       792      1454      1455
         3       884       857       832
         3       813       772       805
         3      1456      1457       749
         4       812       783      1458      1459
         3      1460      1461       796
         4       831       806      1463      1462
         3       814       794       806
         3       795       762       754
         3       810       753       803
         4       796      1465      1464       771
         3      1466      1467       751
         3      1468      1469       787
         4       838      1470      1471       817
         3       864       830       856
         3       797       756       738
         3       843       798       825
         3       798       750       778
         3       809       761       780
         3       833       809       800
         3       800       760       743
         3       834       781       824
         3       835       765       801
         3       836       795       821
         3       802       767       716
         3       861       785       813
         3       844       790       814
         3       866       828       841
         3       804       771       719
         3       804       755       788
         3       805       772       723
         3       805       768       793
         3       806       794       775
         3      1472      1473       796
         4       806       751      1475      1474
         4      1476      1477       777       784
         3       807      1478      1479
         3      1480      1481       784
         4       839      1482      1483       835
         3       808       779       732
         3       808       750       798
         3       809       799       761
         3       809       760       800
         3       810       795       754
         3       810       754       753
         3       811       781       736
         3       818       811       752
         3       840       812       791
         3       846       826       793
         3       846       793       829
         3       813       785       748
         3       887       871       872
         3       844       814       841
         3       815       786       763
         3       827       757       789
         3       875       858       848
         3       868       851       845
         3      1484      1485       787
         4       817      1487      1486       799
         3       847       833       834
         3       842       815       827
         3       848       818       842
         3       819       789       802
         3       869       837       861
         4      1488       822       820      1489
         3       850      1490      1491
         4      1492      1493       788       787
         3       838      1494      1495
         3       851       821       845
         3       821       795       810
         3       822       796       771
         3       822       804       820
         3       823       734       779
         3       832       779       808
         3       832       808       798
         3       824       781       811
         3       825       798       797
         3       874       860       859
         3       826       813       805
         3       829       793       783
         3       827       815       757
         3       853       789       819
         3       871       831       850
         3      1496      1497       820
         4       872       850      1498      1499
         3       855       812       840
         3       888       877       873
         3      1500      1501       776
         4       830       791      1502      1503
         3       856       792       823
         3       831       814       806
         4      1504      1505       796       822
         3       850      1506      1507
         3       857       856       823
         3       857       779       832
         3       833       817       799
         3       834       833       800
         3       834       800       781
         3       858       834       824
         3      1508      1509       784
         4       835      1511      1510       765
         3       859       801       836
         3       874       859       836
         3       836       801       795
         3       837       819       802
         3       861       813       826
         4       862       788      1512      1513
         3      1514      1515       838
         3       863       838       817
         3       839       816       807
         3       859       835       801
         3       889       867       875
         3       864       791       830
         3       841       828       803
         3       854       814       831
         3       875       867       858
         3       842       818       786
         3       843       832       798
         3       876       864       865
         3       844       803       770
         3       844       770       790
         3       845       821       828
         3       903       890       886
         3       877       846       873
         3       855       829       812
         3       847       817       833
         3       848       824       818
         3       891       889       875
         3       880       878       842
         3       849       819       837
         3       892       877       888
         3      1516      1517       796
         4       850       831      1518      1519
         4      1520       820       862      1521
         3       872      1522      1523
         3       860       816       839
         3       851       836       821
         3       879       825       852
         3       852       825       816
         3       880       827       853
         3       881       819       849
         3       866       841       854
         3       854       841       814
         3       855       846       829
         3       882       855       840
         3       856       830       792
         3       883       832       843
         3       857       823       779
         3       884       832       883
         3       858       847       834
         3       858       824       848
         3       859       839       835
         3       874       870       860
         3       860       852       816
         3       860       839       859
         3       861       837       785
         3       861       826       846
         3       862       820       788
         3      1524      1525       862
         4       885       872      1526      1527
         3       906       896       895
         3       886       817       847
         3       893       879       870
         3       864       840       791
         3       894       874       851
         3       905       870       894
         3       866       845       828
         3       895       871       887
         3       906       895       887
         3       867       847       858
         3       896       845       866
         3       907       873       882
         3       873       846       855
         3       869       849       837
         3       893       883       879
         3       870       852       860
         3       871       854       831
         3       872       871       850
         3      1528      1529       862
         4       885      1531      1530       838
         3       908       863       890
         3       882       840       876
         3       899       876       865
         3       874       836       851
         3       894       851       868
         3       878       875       848
         3       914       909       891
         3       876       840       864
         3       899       898       876
         3       877       869       861
         3       877       861       846
         3       878       848       842
         3       881       880       853
         3       879       843       825
         3       879       852       870
         3       880       842       827
         3       881       853       819
         3       916       914       910
         3       901       880       881
         3       917       907       898
         3       882       873       855
         3       902       883       893
         3       883       843       879
         3       884       865       856
         3       884       856       857
         3       885       838       863
         3       924       911       921
         3       886       863       817
         3       903       847       867
         3       896       866       895
         3       897       872       885
         3       929       927       925
         3       892       869       877
         3       930       919       906
         3       891       875       878
         3       890       863       886
         3       911       903       867
         3       901       891       878
         3       900       849       892
         3       892       849       869
         3       910       900       892
         3       912       868       904
         3       902       884       883
         3       894       870       874
         3       920       905       912
         3       895       866       854
         3       895       854       871
         3       906       904       896
         3       896       868       845
         3       897       887       872
         3       908       897       885
         3       898       882       876
         3       915       899       902
         3       902       899       865
         3       912       905       894
         3       914       901       900
         3       900       881       849
         3       901       878       880
         3       901       881       900
         3       902       865       884
         3       915       913       899
         3       903       886       847
         3       911       867       889
         3       926       919       924
         3       904       868       896
         3       905       893       870
         3       912       894       868
         3       906       887       897
         3       930       908       918
         3       907       888       873
         3       907       882       898
         3       908       885       863
         3       918       908       890
         3       909       889       891
         3       927       913       923
         3       910       892       888
         3       917       888       907
         3       911       890       903
         3       921       889       909
         3       931       927       928
         3       920       915       905
         3       928       920       922
         3       913       898       899
         3       914       891       901
         3       914       900       910
         3       915       902       893
         3       915       893       905
         3       916       909       914
         3       929       910       917
         3       917       910       888
         3       917       898       913
         3       930       918       919
         3       918       890       911
         3       926       924       921
         3       919       904       906
         3       922       920       912
         3       923       915       920
         3       921       911       889
         3       931       928       926
         3       922       912       904
         3       922       904       919
         3       929       925       916
         3       923       913       915
         3       924       919       918
         3       924       918       911
         3       925       921       909
         3       925       909       916
         3       931       921       925
         3       926       922       919
         3       927       917       913
         3       928       927       923
         3       928       923       920
         3       928       922       926
         3       929       916       910
         3       929       917       927
         3       930       906       897
         3       930       897       908
         3       931       926       921
         3       931       925       927

CELL_TYPES 1912
   5
   5
   5
   5
   5
   5
   5
   5
   5
   5
   9
   5
   5
   5
   5
   5
   5
   5
   5
   5
   5
   5
   5
   5
   5
   5
   5
   5
   5
   5
   5
   5
   5
   5
   5
   5
   5
   5
   5
   5
   5
   5
   5
   5
   5
   5
   5
   5
   5
   5
   5
   5
   5
   5
   5
   5
   5
   5
   5
   5
   5
   5
   5
   5
   5
   5
   5
   5
   5
   5
   5
   5
   5
   5
   5
   5
   5
   5
   5
   5
   5
   5
   5
   5
   5
   5
   5
   5
   5
   5
   5
   5
   5
   5
   5
   5
   5
   5
   5
   5
   5
   5
   5
   5
   5
   5
   5
   5
   5
   5
   5
   5
   5
   5
   5
   5
   5
   5
   5
   5
   5
   5
   5
   5
   5
   5
   5
   5
   5
   5
   5
   5
   5
   5
   5
   5
   5
   5
   5
   5
   5
   5
   5
   5
   5
   5
   5
   5
   5
   5
   5
   5
   5
   5
   5
   5
   5
   5
   5
   5
   5
   5
   5
   5
   5
   5
   5
   5
   5
   5
   5
   5
   5
   5
   5
   5
   5
   5
   5
   5
   5
   5
   5
   5
   5
   5
   5
   5
   5
   5
   5
   5
   5
   5
   5
   5
   5
   5
   5
   5
   5
   5
   5
   5
   5
   5
   5
   5
   5
   5
   5
   5
   5
   5
   5
   5
   5
   5
   5
   5
   5
   5
   5
   5
   5
   5
   5
   5
   5
   5
   5
   5
   5
   5
   5
   5
   5
   5
   5
   5
   5
   5
   5
   5
   5
   5
   5
   5
   5
   5
   5
   5
   5
   5
   5
   5
   5
   5
   5
   5
   5
   5
   5
   5
   5
   5
   5
   5
   5
   5
   9
   5
   5
   5
   5
   5
   5
   5
   5
   5
   5
   5
   5
   5
   5
   5
   5
   5
   5
   5
   5
   5
   5
   5
   5
   5
   5
   5
   5
   5
   5
   5
   5
   5
   5
   5
   5
   5
   5
   5
   5
   5
   5
   5
   5
   5
   5
   5
   5
   5
   5
   5
   5
   5
   5
   5
   5
   5
   5
   5
   5
   5
   5
   5
   5
   5
   5
   5
   5
   5
   5
   5
   5
   5
   5
   5
   5
   5
   5
   5
   5
   5
   5
   5
   5
   5
   5
   5
   5
   5
   5
   5
   5
   5
   5
   5
   5
   5
   5
   5
   5
   5
   5
   5
   5
   5
   5
   5
   5
   5
   5
   5
   5
   5
   5
   5
   5
   5
   9
   5
   5
   5
   5
   5
   5
   5
   5
   5
   5
   5
   5
   5
   5
   5
   5
   5
   5
   5
   5
   5
   5
   5
   5
   5
   5
   5
   5
   5
   5
   5
   5
   5
   5
   5
   5
   5
   5
   5
   5
   5
   5
   5
   5
   5
   5
   5
   5
   5
   5
   5
   5
   5
   5
   5
   5
   5
   5
   5
   5
   5
   5
   9
   5
   5
   5
   5
   5
   5
   5
   5
   5
   5
   5
   5
   5
   5
   5
   5
   5
   5
   5
   5
   5
   5
   5
   5
   5
   9
   5
   5
   5
   5
   5
   5
   5
   5
   5
   5
   5
   5
   5
   5
   5
   5
   5
   5
   5
   5
   5
   5
   5
   5
   5
   5
   5
   5
   5
   5
   5
   5
   5
   5
   5
   5
   5
   5
   5
   5
   5
   5
   5
   5
   5
   5
   5
   5
   9
   5
   5
   5
   5
   5
   5
   5
   5
   5
   5
   5
   5
   5
   5
   5
   5
   5
   5
   5
   5
   5
   5
   5
   5
   5
   5
   5
   5
   5
   5
   9
   9
   5
   5
   5
   5
   5
   5
   5
   5
   5
   5
   5
   5
   5
   5
   5
   5
   5
   5
   5
   5
   5
   5
   5
   5
   5
   5
   5
   5
   5
   5
   5
   5
   5
   5
   5
   5
   5
   5
   5
   5
   5
   5
   5
   5
   5
   5
   5
   5
   5
   5
   9
   5
   5
   5
   5
   5
   5
   5
   5
   5
   5
   5
   5
   5
   5
   5
   5
   5
   9
   5
   5
   5
   5
   5
   5
   5
   5
   5
   5
   5
   5
   5
   5
   5
   5
   5
   5
   5
   5
   5
   5
   5
   9
   5
   5
   5
   5
   5
   5
   5
   5
   5
   5
   5
   5
   5
   5
   5
   5
   5
   5
   5
   5
   5
   5
   5
   5
   5
   5
   5
   5
   5
   5
   5
   5
   5
   5
   5
   5
   5
   5
   5
   5
   5
   5
   5
   9
   5
   5
   5
   5
   5
   5
   5
   5
   5
   5
   5
   5
   5
   5
   5
   5
   5
   5
   5
   9
   5
   5
   9
   5
   5
   5
   5
   5
   5
   9
   5
   5
   5
   5
   5
   5
   5
   5
   5
   5
   5
   5
   5
   9
   5
   5
   5
   5
   5
   5
   5
   5
   5
   5
   5
   5
   5
   5
   5
   5
   5
   5
   5
   5
   5
   5
   5
   5
   5
   5
   5
   5
   5
   5
   5
   5
   5
   5
   5
   5
   5
   5
   5
   5
   5
   5
   5
   5
   9
   5
   5
   5
   5
   5
   5
   5
   5
   5
   9
   5
   5
   5
   9
   5
   5
   5
   5
   9
   5
   5
   5
   5
   5
   5
   5
   5
   5
   9
   5
   5
   5
   5
   5
   5
   5
   5
   5
   5
   5
   5
   5
   5
   5
   5
   5
   5
   5
   5
   5
   5
   9
   5
   5
   5
   5
   5
   5
   5
   5
   5
   5
   5
   5
   5
   5
   5
   5
   5
   5
   9
   5
   5
   9
   5
   5
   5
   5
   5
   5
   5
   5
   5
   5
   5
   9
   5
   9
   5
   5
   9
   9
   5
   5
   5
   5
   5
   5
   5
   5
   5
   5
   5
   5
   5
   5
   5
   5
   9
   5
   9
   5
   5
   5
   5
   5
   9
   5
   5
   5
   5
   5
   9
   5
   5
   5
   5
   5
   5
   5
   5
   5
   5
   9
   5
   5
   5
   5
   9
   5
   5
   9
   5
   5
   5
   5
   5
   5
   5
   5
   5
   9
   5
   5
   5
   5
   5
   5
   5
   5
   5
   5
   5
   5
   5
   5
   9
   5
   5
   5
   5
   5
   5
   9
   5
   5
   5
   5
   5
   5
   5
   5
   5
   5
   5
   5
   5
   5
   5
   5
   5
   5
   9
   5
   5
   5
   5
   5
   5
   5
   5
   5
   9
   5
   9
   5
   5
   5
   5
   5
   5
   5
   5
   5
   5
   5
   9
   5
   5
   5
   9
   5
   5
   5
   5
   5
   5
   5
   5
   5
   5
   9
   9
   5
   5
   5
   5
   5
   5
   5
   9
   5
   9
   5
   9
   5
   9
   5
   5
   5
   5
   5
   5
   5
   5
   5
   5
   9
   5
   5
   5
   5
   5
   5
   5
   5
   5
   5
   5
   5
   5
   5
   5
   9
   5
   5
   5
   9
   5
   5
   5
   5
   9
   5
   5
   5
   5
   5
   5
   5
   5
   5
   5
   5
   5
   5
   5
   5
   9
   5
   9
   9
   5
   5
   5
   5
   5
   5
   5
   5
   5
   9
   5
   5
   5
   9
   5
   5
   5
   5
   5
   5
   9
   5
   5
   5
   5
   5
   5
   5
   5
   5
   5
   5
   5
   5
   5
   5
   9
   5
   5
   5
   5
   5
   5
   5
   9
   5
   5
   5
   5
   9
   5
   9
   5
   5
   9
   5
   5
   5
   9
   5
   9
   9
   5
   5
   5
   5
   5
   5
   5
   5
   5
   5
   5
   9
   5
   5
   5
   5
   5
   5
   5
   5
   5
   5
   5
   5
   5
   9
   5
   5
   5
   5
   5
   5
   5
   5
   5
   9
   5
   5
   5
   5
   5
   5
   5
   9
   5
   9
   5
   5
   5
   5
   9
   5
   5
   5
   5
   5
   5
   5
   5
   5
   5
   9
   5
   5
   5
   5
   5
   5
   5
   5
   5
   5
   5
   5
   5
   5
   5
   5
   5
   5
   5
   9
   5
   5
   9
   5
   5
   5
   9
   5
   5
   5
   5
   9
   5
   5
   9
   5
   5
   5
   5
   5
   5
   5
   5
   5
   5
   9
   5
   5
   5
   5
   5
   5
   5
   5
   5
   5
   5
   9
   5
   5
   5
   5
   5
   9
   5
   5
   5
   5
   5
   5
   5
   5
   5
   5
   5
   5
   5
   5
   5
   5
   5
   5
   5
   5
   5
   5
   5
   5
   5
   5
   5
   9
   5
   5
   9
   5
   5
   5
   5
   5
   5
   5
   5
   9
   5
   5
   5
   5
   5
   5
   5
   5
   5
   5
   5
   5
   5
   5
   5
   5
   5
   9
   5
   5
   5
   5
   5
   5
   5
   5
   5
   5
   5
   5
   5
   5
   5
   5
   5
   5
   5
   5
   9
   5
   5
   5
   5
   5
   9
   9
   5
   5
   5
   5
   9
   9
   5
   5
   5
   9
   5
   5
   5
   5
   5
   5
   5
   5
   5
   5
   5
   5
   5
   5
   5
   5
   5
   9
   5
   5
   5
   5
   5
   5
   5
   5
   9
   5
   5
   5
   5
   5
   9
   5
   5
   5
   5
   5
   5
   5
   5
   5
   9
   5
   5
   5
   5
   9
   5
   9
   9
   5
   5
   9
   5
   5
   9
   5
   5
   5
   5
   5
   5
   9
   5
   5
   5
   5
   5
   5
   5
   9
   5
   5
   9
   5
   9
   5
   5
   5
   9
   5
   5
   5
   5
   5
   5
   5
   9
   5
   5
   5
   5
   9
   5
   5
   5
   5
   9
   5
   5
   5
   5
   5
   9
   5
   5
   5
   5
   5
   5
   9
   5
   5
   5
   9
   5
   5
   5
   5
   5
   5
   5
   5
   5
   5
   9
   5
   5
   5
   5
   9
   5
   5
   5
   9
   5
   9
   5
   5
   5
   5
   5
   5
   5
   5
   5
   5
   5
   5
   5
   5
   5
   5
   5
   5
   5
   9
   5
   5
   9
   5
   9
   5
   5
   5
   5
   5
   5
   5
   5
   5
   5
   5
   9
   5
   5
   5
   5
   5
   5
   5
   5
   5
   5
   9
   5
   5
   5
   5
   9
   5
   5
   5
   5
   5
   9
   5
   9
   5
   5
   5
   5
   5
   5
   5
   9
   5
   5
   5
   5
   5
   5
   5
   5
   5
   5
   9
   5
   9
   5
   5
   5
   9
   5
   5
   5
   5
   5
   5
   5
   9
   5
   5
   5
   5
   5
   5
   5
   9
   5
   9
   5
   5
   5
   5
   9
   5
   9
   5
   5
   5
   9
   5
   5
   9
   5
   5
   5
   5
   5
   5
   5
   5
   5
   5
   5
   5
   5
   5
   5
   5
   5
   5
   5
   5
   9
   9
   5
   5
   9
   5
   5
   5
   5
   5
   5
   5
   5
   5
   5
   5
   5
   5
   5
   5
   5
   5
   5
   5
   9
   5
   5
   5
   5
   5
   9
   5
   9
   5
   5
   5
   5
   5
   5
   5
   5
   5
   5
   5
   5
   5
   5
   5
   5
   5
   9
   5
   5
   5
   9
   5
   5
   9
   5
   5
   5
   5
   5
   5
   5
   5
   9
   5
   5
   5
   5
   5
   9
   5
   5
   5
   5
   5
   5
   5
   5
   5
   5
   5
   5
   5
   5
   5
   5
   5
   5
   5
   5
   5
   5
   5
   5
   5
   9
   9
   5
   5
   5
   5
   5
   5
   5
   5
   5
   5
   5
   5
   5
   5
   5
   5
   5
   5
   5
   5
   5
   5
   5
   5
   5
   9
   5
   5
   5
   5
   5
   5
   5
   5
   5
   5
   5
   5
   5
   5
   5
   5
   5
   5
   5
   9
   5
   5
   5
   5
   5
   5
   5
   5
   5
   5
   5
   5
   5
   5
   5
   5
   5
   5
   5
   5
   5
   5
   5
   5
   5
   5
   5
   5
   5
   5
   5
   5
   5
   5
   5
   5
   5
   5
   5
   5
   5
   5
   5
   5
   5
   5
   5
   5
   5
   5
   5
   5
   5
   5
   5
   5
   5
   5
   5
   5
   5
   5
   5
   5
   5
   5
   5
   5
   5
   5
   5
   5
   5
   5
   5
   5
   5
   5
   5
   5
   5
   5
   5
   5
   5
   5
   5
   5
   5
   5
   5
   5
   5
   5
   5
   5
   5
   5
   5
   5
   5
   5
   5
   5
   5
   5
   5
   5
   5
   5
   5
   5
   5
   5
   5
   5
   5
   5
   5

CELL_DATA 1912
SCALARS domain int
LOOKUP_TABLE default
   2
   2
   2
   2
   2
   2
   2
   2
   2
   1
   2
   2
   2
   2
   2
   2
   2
   2
   2
   2
   2
   2
   2
   2
   2
   2
   2
   2
   2
   2
   2
   2
   2
   2
   2
   2
   2
   2
   2
   2
   2
   2
   2
   2
   2
   2
   2
   2
   2
   2
   2
   2
   2
   2
   2
   2
   2
   2
   2
   2
   2
   2
   2
   2
   2
   2
   2
   2
   2
   2
   2
   2
   2
   2
   2
   2
   2
   2
   2
   2
   2
   2
   2
   2
   2
   2
   2
   2
   2
   2
   2
   2
   2
   2
   2
   2
   2
   2
   2
   2
   2
   2
   2
   2
   2
   2
   2
   2
   2
   2
   2
   2
   2
   2
   2
   2
   2
   2
   2
   2
   2
   2
   2
   2
   2
   2
   2
   2
   2
   2
   2
   2
   2
   2
   2
   2
   2
   2
   2
   2
   2
   2
   2
   2
   2
   2
   2
   2
   2
   2
   2
   2
   2
   2
   2
   2
   2
   2
   2
   2
   2
   2
   2
   2
   2
   2
   2
   2
   2
   2
   2
   2
   2
   2
   2
   2
   2
   2
   2
   2
   2
   2
   2
   2
   2
   2
   2
   2
   2
   2
   2
   2
   2
   2
   2
   2
   2
   2
   2
   2
   2
   2
   2
   2
   2
   2
   2
   2
   2
   2
   2
   2
   2
   2
   2
   2
   2
   2
   2
   2
   2
   2
   2
   2
   2
   2
   2
   2
   2
   2
   2
   2
   2
   2
   2
   2
   2
   2
   2
   2
   2
   2
   2
   2
   2
   2
   2
   2
   2
   2
   2
   2
   2
   2
   2
   2
   2
   2
   2
   2
   2
   2
   2
   2
   2
   2
   2
   2
   2
   1
   2
   2
   2
   2
   2
   2
   2
   2
   2
   2
   2
   2
   2
   2
   2
   2
   2
   2
   2
   2
   2
   2
   2
   2
   2
   2
   2
   2
   2
   2
   2
   2
   2
   2
   2
   2
   2
   2
   2
   2
   2
   2
   2
   2
   2
   2
   2
   2
   2
   2
   2
   2
   2
   2
   2
   2
   2
   2
   2
   2
   2
   2
   2
   2
   2
   2
   2
   2
   2
   2
   2
   2
   2
   2
   2
   2
   2
   2
   2
   2
   2
   2
   2
   2
   2
   2
   2
   2
   2
   2
   2
   2
   2
   2
   2
   2
   2
   2
   2
   2
   2
   2
   2
   2
   2
   2
   2
   2
   2
   2
   2
   2
   2
   2
   2
   2
   2
   1
   2
   2
   2
   2
   2
   2
   2
   2
   2
   2
   2
   2
   2
   2
   2
   2
   2
   2
   2
   2
   2
   2
   2
   2
   2
   2
   2
   2
   2
   2
   2
   2
   2
   2
   2
   2
   2
   2
   2
   2
   2
   2
   2
   2
   2
   2
   2
   2
   2
   2
   2
   2
   2
   2
   2
   2
   2
   2
   2
   2
   2
   2
   1
   2
   2
   2
   2
   2
   2
   2
   2
   2
   2
   2
   2
   2
   2
   2
   2
   2
   2
   2
   2
   2
   2
   2
   2
   2
   2
   1
   2
   2
   2
   2
   2
   2
   2
   2
   2
   2
   2
   2
   2
   2
   2
   2
   2
   2
   2
   2
   2
   2
   2
   2
   2
   2
   2
   2
   2
   2
   2
   2
   2
   2
   2
   2
   2
   2
   2
   2
   2
   2
   2
   2
   2
   2
   2
   2
   1
   2
   2
   2
   2
   2
   2
   2
   2
   2
   2
   2
   2
   2
   2
   2
   2
   2
   2
   2
   2
   2
   2
   2
   2
   2
   2
   2
   2
   2
   1
   2
   1
   2
   2
   2
   2
   2
   2
   2
   2
   2
   2
   2
   2
   2
   2
   2
   2
   2
   2
   2
   2
   2
   2
   2
   2
   2
   2
   2
   2
   2
   2
   2
   2
   2
   2
   2
   2
   2
   2
   2
   2
   2
   2
   2
   2
   2
   2
   2
   2
   2
   1
   2
   2
   2
   2
   2
   2
   1
   2
   2
   2
   2
   2
   2
   2
   2
   1
   2
   1
   2
   2
   2
   2
   2
   2
   2
   2
   2
   2
   2
   2
   2
   2
   2
   2
   2
   2
   2
   2
   2
   2
   2
   1
   1
   2
   2
   2
   2
   2
   2
   2
   2
   2
   2
   2
   2
   2
   2
   2
   2
   2
   2
   2
   2
   2
   2
   2
   2
   2
   2
   2
   2
   2
   2
   2
   2
   2
   2
   2
   2
   2
   2
   2
   2
   2
   2
   1
   2
   2
   2
   2
   2
   2
   2
   2
   2
   2
   2
   2
   2
   2
   2
   2
   2
   2
   2
   1
   2
   1
   2
   1
   2
   2
   2
   2
   2
   1
   2
   2
   2
   2
   2
   2
   2
   2
   2
   2
   2
   2
   2
   1
   2
   2
   2
   2
   2
   2
   2
   2
   2
   2
   2
   2
   2
   2
   2
   2
   2
   2
   2
   2
   2
   2
   2
   2
   2
   2
   2
   2
   2
   2
   2
   2
   2
   2
   2
   2
   2
   2
   2
   2
   2
   2
   2
   1
   1
   1
   2
   1
   2
   2
   2
   2
   2
   2
   1
   2
   2
   2
   2
   1
   2
   2
   1
   2
   1
   2
   2
   2
   2
   2
   2
   2
   2
   1
   2
   1
   2
   2
   2
   2
   2
   2
   2
   2
   2
   2
   2
   2
   2
   1
   2
   2
   2
   2
   2
   2
   1
   2
   2
   2
   2
   2
   2
   2
   2
   2
   2
   1
   2
   2
   2
   2
   2
   2
   2
   1
   2
   2
   2
   1
   2
   2
   2
   2
   2
   2
   2
   2
   2
   2
   1
   2
   2
   1
   2
   1
   2
   1
   2
   2
   2
   2
   2
   2
   2
   2
   2
   2
   2
   2
   2
   2
   1
   1
   2
   1
   2
   2
   1
   2
   2
   2
   1
   2
   2
   2
   2
   1
   2
   2
   2
   1
   2
   1
   2
   2
   2
   2
   1
   2
   2
   2
   1
   1
   2
   2
   2
   1
   2
   2
   2
   2
   2
   2
   2
   2
   1
   2
   1
   2
   2
   2
   2
   2
   2
   2
   2
   2
   2
   1
   2
   1
   2
   2
   2
   2
   2
   2
   2
   1
   2
   2
   2
   2
   2
   2
   2
   2
   2
   2
   2
   2
   2
   2
   1
   2
   2
   1
   2
   1
   2
   2
   2
   2
   2
   2
   2
   2
   1
   2
   1
   2
   2
   2
   2
   2
   2
   2
   2
   2
   2
   1
   2
   2
   1
   1
   2
   1
   2
   2
   2
   2
   2
   2
   2
   2
   1
   2
   1
   2
   2
   1
   1
   1
   2
   1
   2
   1
   2
   2
   1
   2
   1
   2
   2
   2
   2
   2
   2
   2
   2
   1
   1
   1
   2
   2
   1
   2
   2
   2
   2
   1
   1
   1
   1
   2
   2
   2
   1
   1
   2
   1
   2
   1
   2
   1
   1
   1
   2
   2
   2
   2
   1
   2
   2
   2
   2
   2
   2
   2
   2
   2
   2
   1
   2
   1
   2
   1
   2
   2
   2
   1
   2
   2
   2
   2
   1
   2
   2
   2
   2
   1
   2
   2
   2
   2
   2
   2
   1
   2
   2
   2
   2
   2
   2
   2
   2
   2
   2
   2
   2
   2
   1
   1
   2
   1
   2
   2
   2
   2
   2
   2
   1
   2
   1
   1
   2
   1
   2
   1
   2
   1
   2
   2
   2
   1
   2
   1
   2
   1
   2
   2
   2
   2
   1
   1
   2
   2
   2
   2
   1
   1
   2
   2
   2
   2
   2
   2
   1
   2
   2
   2
   2
   2
   1
   2
   1
   2
   1
   1
   2
   2
   2
   2
   1
   1
   2
   1
   1
   2
   1
   2
   1
   2
   1
   1
   2
   2
   2
   1
   2
   1
   1
   2
   2
   2
   1
   2
   2
   2
   1
   2
   1
   2
   2
   2
   2
   2
   2
   2
   2
   2
   2
   2
   2
   2
   2
   2
   2
   1
   1
   2
   2
   1
   2
   2
   2
   1
   2
   1
   1
   2
   1
   1
   2
   1
   1
   2
   2
   2
   1
   1
   1
   2
   2
   2
   1
   2
   2
   1
   1
   2
   2
   2
   2
   2
   2
   1
   1
   1
   2
   1
   2
   2
   1
   2
   1
   2
   2
   2
   2
   1
   2
   2
   2
   2
   2
   1
   2
   2
   1
   2
   2
   2
   2
   2
   2
   2
   2
   1
   1
   2
   1
   2
   1
   1
   1
   2
   2
   1
   1
   2
   2
   1
   1
   2
   2
   2
   2
   2
   2
   1
   2
   2
   2
   1
   2
   2
   1
   1
   1
   1
   2
   1
   2
   1
   2
   2
   2
   1
   1
   2
   2
   1
   2
   2
   2
   2
   2
   1
   1
   2
   1
   2
   1
   2
   2
   2
   1
   1
   2
   1
   2
   1
   2
   1
   2
   1
   2
   2
   1
   2
   2
   2
   2
   2
   2
   1
   1
   2
   2
   1
   1
   1
   2
   1
   1
   2
   1
   2
   2
   2
   2
   2
   2
   2
   2
   1
   1
   2
   1
   2
   1
   1
   2
   2
   2
   2
   2
   2
   2
   2
   2
   1
   2
   2
   2
   2
   1
   2
   1
   2
   1
   2
   1
   1
   2
   2
   1
   2
   2
   2
   2
   2
   1
   2
   1
   2
   2
   1
   1
   2
   1
   2
   2
   1
   2
   1
   2
   2
   2
   2
   1
   2
   2
   2
   2
   2
   2
   1
   2
   1
   2
   1
   1
   2
   2
   2
   2
   1
   1
   2
   1
   2
   1
   1
   2
   2
   2
   2
   2
   2
   1
   2
   1
   1
   1
   2
   1
   2
   2
   2
   2
   2
   2
   2
   2
   1
   2
   2
   2
   2
   2
   1
   2
   1
   1
   2
   2
   1
   2
   2
   2
   1
   1
   2
   2
   1
   2
   2
   2
   1
   2
   2
   2
   1
   1
   2
   2
   1
   2
   1
   2
   2
   1
   2
   1
   1
   2
   2
   2
   2
   2
   2
   2
   1
   2
   2
   2
   1
   2
   1
   1
   2
   2
   2
   1
   2
   2
   1
   1
   2
   1
   2
   1
   2
   2
   1
   1
   2
   1
   2
   2
   2
   2
   2
   2
   1
   1
   2
   2
   2
   2
   2
   2
   2
   2
   2
   1
   2
   2
   1
   2
   2
   1
   2
   2
   2
   2
   2
   2
   2
   1
   2
   1
   1
   2
   2
   2
   2
   1
   2
   2
   1
   2
   2
   2
   1
   2
   1
   2
   2
   2
   2
   1
   2
   1
   2
   2
   2
   2
   2
   2
   2
   2
   2
   2
   2
   2
   2
   2
   2
   1
   1
   2
   2
   2
   1
   2
   1
   2
   1
   2
   2
   2
   2
   2
   2
   2
   2
   2
   2
   2
   2
   2
   2
   2
   2
   2
   2
   2
   1
   2
   2
   2
   2
   2
   2
   1
   2
   1
   2
   2
   2
   1
   1
   2
   2
   2
   2
   2
   2
   2
   2
   2
   2
   2
   1
   2
   2
   2
   1
   2
   2
   2
   1
   2
   2
   2
   2
   2
   2
   2
   1
   2
   2
   2
   2
   2
   2
   1
   2
   2
   2
   2
   2
   2
   2
   2
   2
   2
   2
   2
   2
   2
   2
   2
   2
   2
   2
   2
   2
   2
   2
   2
   1
   2
   1
   2
   2
   2
   2
   2
   2
   2
   2
   2
   2
   2
   2
   2
   2
   2
   2
   2
   2
   2
   2
   2
   2
   2
   1
   1
   2
   2
   2
   2
   2
   2
   2
   2
   2
   2
   2
   2
   2
   2
   2
   2
   2
   2
   2
   1
   2
   2
   2
   2
   2
   2
   2
   2
   2
   2
   2
   2
   2
   2
   2
   2
   2
   2
   2
   2
   2
   2
   2
   2
   2
   2
   2
   2
   2
   2
   2
   2
   2
   2
   2
   2
   2
   2
   2
   2
   2
   2
   2
   2
   2
   2
   2
   2
   2
   2
   2
   2
   2
   2
   2
   2
   2
   2
   2
   2
   2
   2
   2
   2
   2
   2
   2
   2
   2
   2
   2
   2
   2
   2
   2
   2
   2
   2
   2
   2
   2
   2
   2
   2
   2
   2
   2
   2
   2
   2
   2
   2
   2
   2
   2
   2
   2
   2
   2
   2
   2
   2
   2
   2
   2
   2
   2
   2
   2
   2
   2
   2
   2
   2
   2
   2
   2
   2
   2
   2

SCALARS E float
LOOKUP_TABLE default
   1.000e+00
   1.000e+00
   1.000e+00
   1.000e+00
   1.000e+00
   1.000e+00
   1.000e+00
   1.000e+00
   1.000e+00
   1.000e+00
   1.000e+00
   1.000e+00
   1.000e+00
   1.000e+00
   1.000e+00
   1.000e+00
   1.000e+00
   1.000e+00
   1.000e+00
   1.000e+00
   1.000e+00
   1.000e+00
   1.000e+00
   1.000e+00
   1.000e+00
   1.000e+00
   1.000e+00
   1.000e+00
   1.000e+00
   1.000e+00
   1.000e+00
   1.000e+00
   1.000e+00
   1.000e+00
   1.000e+00
   1.000e+00
   1.000e+00
   1.000e+00
   1.000e+00
   1.000e+00
   1.000e+00
   1.000e+00
   1.000e+00
   1.000e+00
   1.000e+00
   1.000e+00
   1.000e+00
   1.000e+00
   1.000e+00
   1.000e+00
   1.000e+00
   1.000e+00
   1.000e+00
   1.000e+00
   1.000e+00
   1.000e+00
   1.000e+00
   1.000e+00
   1.000e+00
   1.000e+00
   1.000e+00
   1.000e+00
   1.000e+00
   1.000e+00
   1.000e+00
   1.000e+00
   1.000e+00
   1.000e+00
   1.000e+00
   1.000e+00
   1.000e+00
   1.000e+00
   1.000e+00
   1.000e+00
   1.000e+00
   1.000e+00
   1.000e+00
   1.000e+00
   1.000e+00
   1.000e+00
   1.000e+00
   1.000e+00
   1.000e+00
   1.000e+00
   1.000e+00
   1.000e+00
   1.000e+00
   1.000e+00
   1.000e+00
   1.000e+00
   1.000e+00
   1.000e+00
   1.000e+00
   1.000e+00
   1.000e+00
   1.000e+00
   1.000e+00
   1.000e+00
   1.000e+00
   1.000e+00
   1.000e+00
   1.000e+00
   1.000e+00
   1.000e+00
   1.000e+00
   1.000e+00
   1.000e+00
   1.000e+00
   1.000e+00
   1.000e+00
   1.000e+00
   1.000e+00
   1.000e+00
   1.000e+00
   1.000e+00
   1.000e+00
   1.000e+00
   1.000e+00
   1.000e+00
   1.000e+00
   1.000e+00
   1.000e+00
   1.000e+00
   1.000e+00
   1.000e+00
   1.000e+00
   1.000e+00
   1.000e+00
   1.000e+00
   1.000e+00
   1.000e+00
   1.000e+00
   1.000e+00
   1.000e+00
   1.000e+00
   1.000e+00
   1.000e+00
   1.000e+00
   1.000e+00
   1.000e+00
   1.000e+00
   1.000e+00
   1.000e+00
   1.000e+00
   1.000e+00
   1.000e+00
   1.000e+00
   1.000e+00
   1.000e+00
   1.000e+00
   1.000e+00
   1.000e+00
   1.000e+00
   1.000e+00
   1.000e+00
   1.000e+00
   1.000e+00
   1.000e+00
   1.000e+00
   1.000e+00
   1.000e+00
   1.000e+00
   1.000e+00
   1.000e+00
   1.000e+00
   1.000e+00
   1.000e+00
   1.000e+00
   1.000e+00
   1.000e+00
   1.000e+00
   1.000e+00
   1.000e+00
   1.000e+00
   1.000e+00
   1.000e+00
   1.000e+00
   1.000e+00
   1.000e+00
   1.000e+00
   1.000e+00
   1.000e+00
   1.000e+00
   1.000e+00
   1.000e+00
   1.000e+00
   1.000e+00
   1.000e+00
   1.000e+00
   1.000e+00
   1.000e+00
   1.000e+00
   1.000e+00
   1.000e+00
   1.000e+00
   1.000e+00
   1.000e+00
   1.000e+00
   1.000e+00
   1.000e+00
   1.000e+00
   1.000e+00
   1.000e+00
   1.000e+00
   1.000e+00
   1.000e+00
   1.000e+00
   1.000e+00
   1.000e+00
   1.000e+00
   1.000e+00
   1.000e+00
   1.000e+00
   1.000e+00
   1.000e+00
   1.000e+00
   1.000e+00
   1.000e+00
   1.000e+00
   1.000e+00
   1.000e+00
   1.000e+00
   1.000e+00
   1.000e+00
   1.000e+00
   1.000e+00
   1.000e+00
   1.000e+00
   1.000e+00
   1.000e+00
   1.000e+00
   1.000e+00
   1.000e+00
   1.000e+00
   1.000e+00
   1.000e+00
   1.000e+00
   1.000e+00
   1.000e+00
   1.000e+00
   1.000e+00
   1.000e+00
   1.000e+00
   1.000e+00
   1.000e+00
   1.000e+00
   1.000e+00
   1.000e+00
   1.000e+00
   1.000e+00
   1.000e+00
   1.000e+00
   1.000e+00
   1.000e+00
   1.000e+00
   1.000e+00
   1.000e+00
   1.000e+00
   1.000e+00
   1.000e+00
   1.000e+00
   1.000e+00
   1.000e+00
   1.000e+00
   1.000e+00
   1.000e+00
   1.000e+00
   1.000e+00
   1.000e+00
   1.000e+00
   1.000e+00
   1.000e+00
   1.000e+00
   1.000e+00
   1.000e+00
   1.000e+00
   1.000e+00
   1.000e+00
   1.000e+00
   1.000e+00
   1.000e+00
   1.000e+00
   1.000e+00
   1.000e+00
   1.000e+00
   1.000e+00
   1.000e+00
   1.000e+00
   1.000e+00
   1.000e+00
   1.000e+00
   1.000e+00
   1.000e+00
   1.000e+00
   1.000e+00
   1.000e+00
   1.000e+00
   1.000e+00
   1.000e+00
   1.000e+00
   1.000e+00
   1.000e+00
   1.000e+00
   1.000e+00
   1.000e+00
   1.000e+00
   1.000e+00
   1.000e+00
   1.000e+00
   1.000e+00
   1.000e+00
   1.000e+00
   1.000e+00
   1.000e+00
   1.000e+00
   1.000e+00
   1.000e+00
   1.000e+00
   1.000e+00
   1.000e+00
   1.000e+00
   1.000e+00
   1.000e+00
   1.000e+00
   1.000e+00
   1.000e+00
   1.000e+00
   1.000e+00
   1.000e+00
   1.000e+00
   1.000e+00
   1.000e+00
   1.000e+00
   1.000e+00
   1.000e+00
   1.000e+00
   1.000e+00
   1.000e+00
   1.000e+00
   1.000e+00
   1.000e+00
   1.000e+00
   1.000e+00
   1.000e+00
   1.000e+00
   1.000e+00
   1.000e+00
   1.000e+00
   1.000e+00
   1.000e+00
   1.000e+00
   1.000e+00
   1.000e+00
   1.000e+00
   1.000e+00
   1.000e+00
   1.000e+00
   1.000e+00
   1.000e+00
   1.000e+00
   1.000e+00
   1.000e+00
   1.000e+00
   1.000e+00
   1.000e+00
   1.000e+00
   1.000e+00
   1.000e+00
   1.000e+00
   1.000e+00
   1.000e+00
   1.000e+00
   1.000e+00
   1.000e+00
   1.000e+00
   1.000e+00
   1.000e+00
   1.000e+00
   1.000e+00
   1.000e+00
   1.000e+00
   1.000e+00
   1.000e+00
   1.000e+00
   1.000e+00
   1.000e+00
   1.000e+00
   1.000e+00
   1.000e+00
   1.000e+00
   1.000e+00
   1.000e+00
   1.000e+00
   1.000e+00
   1.000e+00
   1.000e+00
   1.000e+00
   1.000e+00
   1.000e+00
   1.000e+00
   1.000e+00
   1.000e+00
   1.000e+00
   1.000e+00
   1.000e+00
   1.000e+00
   1.000e+00
   1.000e+00
   1.000e+00
   1.000e+00
   1.000e+00
   1.000e+00
   1.000e+00
   1.000e+00
   1.000e+00
   1.000e+00
   1.000e+00
   1.000e+00
   1.000e+00
   1.000e+00
   1.000e+00
   1.000e+00
   1.000e+00
   1.000e+00
   1.000e+00
   1.000e+00
   1.000e+00
   1.000e+00
   1.000e+00
   1.000e+00
   1.000e+00
   1.000e+00
   1.000e+00
   1.000e+00
   1.000e+00
   1.000e+00
   1.000e+00
   1.000e+00
   1.000e+00
   1.000e+00
   1.000e+00
   1.000e+00
   1.000e+00
   1.000e+00
   1.000e+00
   1.000e+00
   1.000e+00
   1.000e+00
   1.000e+00
   1.000e+00
   1.000e+00
   1.000e+00
   1.000e+00
   1.000e+00
   1.000e+00
   1.000e+00
   1.000e+00
   1.000e+00
   1.000e+00
   1.000e+00
   1.000e+00
   1.000e+00
   1.000e+00
   1.000e+00
   1.000e+00
   1.000e+00
   1.000e+00
   1.000e+00
   1.000e+00
   1.000e+00
   1.000e+00
   1.000e+00
   1.000e+00
   1.000e+00
   1.000e+00
   1.000e+00
   1.000e+00
   1.000e+00
   1.000e+00
   1.000e+00
   1.000e+00
   1.000e+00
   1.000e+00
   1.000e+00
   1.000e+00
   1.000e+00
   1.000e+00
   1.000e+00
   1.000e+00
   1.000e+00
   1.000e+00
   1.000e+00
   1.000e+00
   1.000e+00
   1.000e+00
   1.000e+00
   1.000e+00
   1.000e+00
   1.000e+00
   1.000e+00
   1.000e+00
   1.000e+00
   1.000e+00
   1.000e+00
   1.000e+00
   1.000e+00
   1.000e+00
   1.000e+00
   1.000e+00
   1.000e+00
   1.000e+00
   1.000e+00
   1.000e+00
   1.000e+00
   1.000e+00
   1.000e+00
   1.000e+00
   1.000e+00
   1.000e+00
   1.000e+00
   1.000e+00
   1.000e+00
   1.000e+00
   1.000e+00
   1.000e+00
   1.000e+00
   1.000e+00
   1.000e+00
   1.000e+00
   1.000e+00
   1.000e+00
   1.000e+00
   1.000e+00
   1.000e+00
   1.000e+00
   1.000e+00
   1.000e+00
   1.000e+00
   1.000e+00
   1.000e+00
   1.000e+00
   1.000e+00
   1.000e+00
   1.000e+00
   1.000e+00
   1.000e+00
   1.000e+00
   1.000e+00
   1.000e+00
   1.000e+00
   1.000e+00
   1.000e+00
   1.000e+00
   1.000e+00
   1.000e+00
   1.000e+00
   1.000e+00
   1.000e+00
   1.000e+00
   1.000e+00
   1.000e+00
   1.000e+00
   1.000e+00
   1.000e+00
   1.000e+00
   1.000e+00
   1.000e+00
   1.000e+00
   1.000e+00
   1.000e+00
   1.000e+00
   1.000e+00
   1.000e+00
   1.000e+00
   1.000e+00
   1.000e+00
   1.000e+00
   1.000e+00
   1.000e+00
   1.000e+00
   1.000e+00
   1.000e+00
   1.000e+00
   1.000e+00
   1.000e+00
   1.000e+00
   1.000e+00
   1.000e+00
   1.000e+00
   1.000e+00
   1.000e+00
   1.000e+00
   1.000e+00
   1.000e+00
   1.000e+00
   1.000e+00
   1.000e+00
   1.000e+00
   1.000e+00
   1.000e+00
   1.000e+00
   1.000e+00
   1.000e+00
   1.000e+00
   1.000e+00
   1.000e+00
   1.000e+00
   1.000e+00
   1.000e+00
   1.000e+00
   1.000e+00
   1.000e+00
   1.000e+00
   1.000e+00
   1.000e+00
   1.000e+00
   1.000e+00
   1.000e+00
   1.000e+00
   1.000e+00
   1.000e+00
   1.000e+00
   1.000e+00
   1.000e+00
   1.000e+00
   1.000e+00
   1.000e+00
   1.000e+00
   1.000e+00
   1.000e+00
   1.000e+00
   1.000e+00
   1.000e+00
   1.000e+00
   1.000e+00
   1.000e+00
   1.000e+00
   1.000e+00
   1.000e+00
   1.000e+00
   1.000e+00
   1.000e+00
   1.000e+00
   1.000e+00
   1.000e+00
   1.000e+00
   1.000e+00
   1.000e+00
   1.000e+00
   1.000e+00
   1.000e+00
   1.000e+00
   1.000e+00
   1.000e+00
   1.000e+00
   1.000e+00
   1.000e+00
   1.000e+00
   1.000e+00
   1.000e+00
   1.000e+00
   1.000e+00
   1.000e+00
   1.000e+00
   1.000e+00
   1.000e+00
   1.000e+00
   1.000e+00
   1.000e+00
   1.000e+00
   1.000e+00
   1.000e+00
   1.000e+00
   1.000e+00
   1.000e+00
   1.000e+00
   1.000e+00
   1.000e+00
   1.000e+00
   1.000e+00
   1.000e+00
   1.000e+00
   1.000e+00
   1.000e+00
   1.000e+00
   1.000e+00
   1.000e+00
   1.000e+00
   1.000e+00
   1.000e+00
   1.000e+00
   1.000e+00
   1.000e+00
   1.000e+00
   1.000e+00
   1.000e+00
   1.000e+00
   1.000e+00
   1.000e+00
   1.000e+00
   1.000e+00
   1.000e+00
   1.000e+00
   1.000e+00
   1.000e+00
   1.000e+00
   1.000e+00
   1.000e+00
   1.000e+00
   1.000e+00
   1.000e+00
   1.000e+00
   1.000e+00
   1.000e+00
   1.000e+00
   1.000e+00
   1.000e+00
   1.000e+00
   1.000e+00
   1.000e+00
   1.000e+00
   1.000e+00
   1.000e+00
   1.000e+00
   1.000e+00
   1.000e+00
   1.000e+00
   1.000e+00
   1.000e+00
   1.000e+00
   1.000e+00
   1.000e+00
   1.000e+00
   1.000e+00
   1.000e+00
   1.000e+00
   1.000e+00
   1.000e+00
   1.000e+00
   1.000e+00
   1.000e+00
   1.000e+00
   1.000e+00
   1.000e+00
   1.000e+00
   1.000e+00
   1.000e+00
   1.000e+00
   1.000e+00
   1.000e+00
   1.000e+00
   1.000e+00
   1.000e+00
   1.000e+00
   1.000e+00
   1.000e+00
   1.000e+00
   1.000e+00
   1.000e+00
   1.000e+00
   1.000e+00
   1.000e+00
   1.000e+00
   1.000e+00
   1.000e+00
   1.000e+00
   1.000e+00
   1.000e+00
   1.000e+00
   1.000e+00
   1.000e+00
   1.000e+00
   1.000e+00
   1.000e+00
   1.000e+00
   1.000e+00
   1.000e+00
   1.000e+00
   1.000e+00
   1.000e+00
   1.000e+00
   1.000e+00
   1.000e+00
   1.000e+00
   1.000e+00
   1.000e+00
   1.000e+00
   1.000e+00
   1.000e+00
   1.000e+00
   1.000e+00
   1.000e+00
   1.000e+00
   1.000e+00
   1.000e+00
   1.000e+00
   1.000e+00
   1.000e+00
   1.000e+00
   1.000e+00
   1.000e+00
   1.000e+00
   1.000e+00
   1.000e+00
   1.000e+00
   1.000e+00
   1.000e+00
   1.000e+00
   1.000e+00
   1.000e+00
   1.000e+00
   1.000e+00
   1.000e+00
   1.000e+00
   1.000e+00
   1.000e+00
   1.000e+00
   1.000e+00
   1.000e+00
   1.000e+00
   1.000e+00
   1.000e+00
   1.000e+00
   1.000e+00
   1.000e+00
   1.000e+00
   1.000e+00
   1.000e+00
   1.000e+00
   1.000e+00
   1.000e+00
   1.000e+00
   1.000e+00
   1.000e+00
   1.000e+00
   1.000e+00
   1.000e+00
   1.000e+00
   1.000e+00
   1.000e+00
   1.000e+00
   1.000e+00
   1.000e+00
   1.000e+00
   1.000e+00
   1.000e+00
   1.000e+00
   1.000e+00
   1.000e+00
   1.000e+00
   1.000e+00
   1.000e+00
   1.000e+00
   1.000e+00
   1.000e+00
   1.000e+00
   1.000e+00
   1.000e+00
   1.000e+00
   1.000e+00
   1.000e+00
   1.000e+00
   1.000e+00
   1.000e+00
   1.000e+00
   1.000e+00
   1.000e+00
   1.000e+00
   1.000e+00
   1.000e+00
   1.000e+00
   1.000e+00
   1.000e+00
   1.000e+00
   1.000e+00
   1.000e+00
   1.000e+00
   1.000e+00
   1.000e+00
   1.000e+00
   1.000e+00
   1.000e+00
   1.000e+00
   1.000e+00
   1.000e+00
   1.000e+00
   1.000e+00
   1.000e+00
   1.000e+00
   1.000e+00
   1.000e+00
   1.000e+00
   1.000e+00
   1.000e+00
   1.000e+00
   1.000e+00
   1.000e+00
   1.000e+00
   1.000e+00
   1.000e+00
   1.000e+00
   1.000e+00
   1.000e+00
   1.000e+00
   1.000e+00
   1.000e+00
   1.000e+00
   1.000e+00
   1.000e+00
   1.000e+00
   1.000e+00
   1.000e+00
   1.000e+00
   1.000e+00
   1.000e+00
   1.000e+00
   1.000e+00
   1.000e+00
   1.000e+00
   1.000e+00
   1.000e+00
   1.000e+00
   1.000e+00
   1.000e+00
   1.000e+00
   1.000e+00
   1.000e+00
   1.000e+00
   1.000e+00
   1.000e+00
   1.000e+00
   1.000e+00
   1.000e+00
   1.000e+00
   1.000e+00
   1.000e+00
   1.000e+00
   1.000e+00
   1.000e+00
   1.000e+00
   1.000e+00
   1.000e+00
   1.000e+00
   1.000e+00
   1.000e+00
   1.000e+00
   1.000e+00
   1.000e+00
   1.000e+00
   1.000e+00
   1.000e+00
   1.000e+00
   1.000e+00
   1.000e+00
   1.000e+00
   1.000e+00
   1.000e+00
   1.000e+00
   1.000e+00
   1.000e+00
   1.000e+00
   1.000e+00
   1.000e+00
   1.000e+00
   1.000e+00
   1.000e+00
   1.000e+00
   1.000e+00
   1.000e+00
   1.000e+00
   1.000e+00
   1.000e+00
   1.000e+00
   1.000e+00
   1.000e+00
   1.000e+00
   1.000e+00
   1.000e+00
   1.000e+00
   1.000e+00
   1.000e+00
   1.000e+00
   1.000e+00
   1.000e+00
   1.000e+00
   1.000e+00
   1.000e+00
   1.000e+00
   1.000e+00
   1.000e+00
   1.000e+00
   1.000e+00
   1.000e+00
   1.000e+00
   1.000e+00
   1.000e+00
   1.000e+00
   1.000e+00
   1.000e+00
   1.000e+00
   1.000e+00
   1.000e+00
   1.000e+00
   1.000e+00
   1.000e+00
   1.000e+00
   1.000e+00
   1.000e+00
   1.000e+00
   1.000e+00
   1.000e+00
   1.000e+00
   1.000e+00
   1.000e+00
   1.000e+00
   1.000e+00
   1.000e+00
   1.000e+00
   1.000e+00
   1.000e+00
   1.000e+00
   1.000e+00
   1.000e+00
   1.000e+00
   1.000e+00
   1.000e+00
   1.000e+00
   1.000e+00
   1.000e+00
   1.000e+00
   1.000e+00
   1.000e+00
   1.000e+00
   1.000e+00
   1.000e+00
   1.000e+00
   1.000e+00
   1.000e+00
   1.000e+00
   1.000e+00
   1.000e+00
   1.000e+00
   1.000e+00
   1.000e+00
   1.000e+00
   1.000e+00
   1.000e+00
   1.000e+00
   1.000e+00
   1.000e+00
   1.000e+00
   1.000e+00
   1.000e+00
   1.000e+00
   1.000e+00
   1.000e+00
   1.000e+00
   1.000e+00
   1.000e+00
   1.000e+00
   1.000e+00
   1.000e+00
   1.000e+00
   1.000e+00
   1.000e+00
   1.000e+00
   1.000e+00
   1.000e+00
   1.000e+00
   1.000e+00
   1.000e+00
   1.000e+00
   1.000e+00
   1.000e+00
   1.000e+00
   1.000e+00
   1.000e+00
   1.000e+00
   1.000e+00
   1.000e+00
   1.000e+00
   1.000e+00
   1.000e+00
   1.000e+00
   1.000e+00
   1.000e+00
   1.000e+00
   1.000e+00
   1.000e+00
   1.000e+00
   1.000e+00
   1.000e+00
   1.000e+00
   1.000e+00
   1.000e+00
   1.000e+00
   1.000e+00
   1.000e+00
   1.000e+00
   1.000e+00
   1.000e+00
   1.000e+00
   1.000e+00
   1.000e+00
   1.000e+00
   1.000e+00
   1.000e+00
   1.000e+00
   1.000e+00
   1.000e+00
   1.000e+00
   1.000e+00
   1.000e+00
   1.000e+00
   1.000e+00
   1.000e+00
   1.000e+00
   1.000e+00
   1.000e+00
   1.000e+00
   1.000e+00
   1.000e+00
   1.000e+00
   1.000e+00
   1.000e+00
   1.000e+00
   1.000e+00
   1.000e+00
   1.000e+00
   1.000e+00
   1.000e+00
   1.000e+00
   1.000e+00
   1.000e+00
   1.000e+00
   1.000e+00
   1.000e+00
   1.000e+00
   1.000e+00
   1.000e+00
   1.000e+00
   1.000e+00
   1.000e+00
   1.000e+00
   1.000e+00
   1.000e+00
   1.000e+00
   1.000e+00
   1.000e+00
   1.000e+00
   1.000e+00
   1.000e+00
   1.000e+00
   1.000e+00
   1.000e+00
   1.000e+00
   1.000e+00
   1.000e+00
   1.000e+00
   1.000e+00
   1.000e+00
   1.000e+00
   1.000e+00
   1.000e+00
   1.000e+00
   1.000e+00
   1.000e+00
   1.000e+00
   1.000e+00
   1.000e+00
   1.000e+00
   1.000e+00
   1.000e+00
   1.000e+00
   1.000e+00
   1.000e+00
   1.000e+00
   1.000e+00
   1.000e+00
   1.000e+00
   1.000e+00
   1.000e+00
   1.000e+00
   1.000e+00
   1.000e+00
   1.000e+00
   1.000e+00
   1.000e+00
   1.000e+00
   1.000e+00
   1.000e+00
   1.000e+00
   1.000e+00
   1.000e+00
   1.000e+00
   1.000e+00
   1.000e+00
   1.000e+00
   1.000e+00
   1.000e+00
   1.000e+00
   1.000e+00
   1.000e+00
   1.000e+00
   1.000e+00
   1.000e+00
   1.000e+00
   1.000e+00
   1.000e+00
   1.000e+00
   1.000e+00
   1.000e+00
   1.000e+00
   1.000e+00
   1.000e+00
   1.000e+00
   1.000e+00
   1.000e+00
   1.000e+00
   1.000e+00
   1.000e+00
   1.000e+00
   1.000e+00
   1.000e+00
   1.000e+00
   1.000e+00
   1.000e+00
   1.000e+00
   1.000e+00
   1.000e+00
   1.000e+00
   1.000e+00
   1.000e+00
   1.000e+00
   1.000e+00
   1.000e+00
   1.000e+00
   1.000e+00
   1.000e+00
   1.000e+00
   1.000e+00
   1.000e+00
   1.000e+00
   1.000e+00
   1.000e+00
   1.000e+00
   1.000e+00
   1.000e+00
   1.000e+00
   1.000e+00
   1.000e+00
   1.000e+00
   1.000e+00
   1.000e+00
   1.000e+00
   1.000e+00
   1.000e+00
   1.000e+00
   1.000e+00
   1.000e+00
   1.000e+00
   1.000e+00
   1.000e+00
   1.000e+00
   1.000e+00
   1.000e+00
   1.000e+00
   1.000e+00
   1.000e+00
   1.000e+00
   1.000e+00
   1.000e+00
   1.000e+00
   1.000e+00
   1.000e+00
   1.000e+00
   1.000e+00
   1.000e+00
   1.000e+00
   1.000e+00
   1.000e+00
   1.000e+00
   1.000e+00
   1.000e+00
   1.000e+00
   1.000e+00
   1.000e+00
   1.000e+00
   1.000e+00
   1.000e+00
   1.000e+00
   1.000e+00
   1.000e+00
   1.000e+00
   1.000e+00
   1.000e+00
   1.000e+00
   1.000e+00
   1.000e+00
   1.000e+00
   1.000e+00
   1.000e+00
   1.000e+00
   1.000e+00
   1.000e+00
   1.000e+00
   1.000e+00
   1.000e+00
   1.000e+00
   1.000e+00
   1.000e+00
   1.000e+00
   1.000e+00
   1.000e+00
   1.000e+00
   1.000e+00
   1.000e+00
   1.000e+00
   1.000e+00
   1.000e+00
   1.000e+00
   1.000e+00
   1.000e+00
   1.000e+00
   1.000e+00
   1.000e+00
   1.000e+00
   1.000e+00
   1.000e+00
   1.000e+00
   1.000e+00
   1.000e+00
   1.000e+00
   1.000e+00
   1.000e+00
   1.000e+00
   1.000e+00
   1.000e+00
   1.000e+00
   1.000e+00
   1.000e+00
   1.000e+00
   1.000e+00
   1.000e+00
   1.000e+00
   1.000e+00
   1.000e+00
   1.000e+00
   1.000e+00
   1.000e+00
   1.000e+00
   1.000e+00
   1.000e+00
   1.000e+00
   1.000e+00
   1.000e+00
   1.000e+00
   1.000e+00
   1.000e+00
   1.000e+00
   1.000e+00
   1.000e+00
   1.000e+00
   1.000e+00
   1.000e+00
   1.000e+00
   1.000e+00
   1.000e+00
   1.000e+00
   1.000e+00
   1.000e+00
   1.000e+00
   1.000e+00
   1.000e+00
   1.000e+00
   1.000e+00
   1.000e+00
   1.000e+00
   1.000e+00
   1.000e+00
   1.000e+00
   1.000e+00
   1.000e+00
   1.000e+00
   1.000e+00
   1.000e+00
   1.000e+00
   1.000e+00
   1.000e+00
   1.000e+00
   1.000e+00
   1.000e+00
   1.000e+00
   1.000e+00
   1.000e+00
   1.000e+00
   1.000e+00
   1.000e+00
   1.000e+00
   1.000e+00
   1.000e+00
   1.000e+00
   1.000e+00
   1.000e+00
   1.000e+00
   1.000e+00
   1.000e+00
   1.000e+00
   1.000e+00
   1.000e+00
   1.000e+00
   1.000e+00
   1.000e+00
   1.000e+00
   1.000e+00
   1.000e+00
   1.000e+00
   1.000e+00
   1.000e+00
   1.000e+00
   1.000e+00
   1.000e+00
   1.000e+00
   1.000e+00
   1.000e+00
   1.000e+00
   1.000e+00
   1.000e+00
   1.000e+00
   1.000e+00
   1.000e+00
   1.000e+00
   1.000e+00
   1.000e+00
   1.000e+00
   1.000e+00
   1.000e+00
   1.000e+00
   1.000e+00
   1.000e+00
   1.000e+00
   1.000e+00
   1.000e+00
   1.000e+00
   1.000e+00
   1.000e+00
   1.000e+00
   1.000e+00
   1.000e+00
   1.000e+00
   1.000e+00
   1.000e+00
   1.000e+00
   1.000e+00
   1.000e+00
   1.000e+00
   1.000e+00
   1.000e+00
   1.000e+00
   1.000e+00
   1.000e+00
   1.000e+00
   1.000e+00
   1.000e+00
   1.000e+00
   1.000e+00
   1.000e+00
   1.000e+00
   1.000e+00
   1.000e+00
   1.000e+00
   1.000e+00
   1.000e+00
   1.000e+00
   1.000e+00
   1.000e+00
   1.000e+00
   1.000e+00
   1.000e+00
   1.000e+00
   1.000e+00
   1.000e+00
   1.000e+00
   1.000e+00
   1.000e+00
   1.000e+00
   1.000e+00
   1.000e+00
   1.000e+00
   1.000e+00
   1.000e+00
   1.000e+00
   1.000e+00
   1.000e+00
   1.000e+00
   1.000e+00
   1.000e+00
   1.000e+00
   1.000e+00
   1.000e+00
   1.000e+00
   1.000e+00
   1.000e+00
   1.000e+00
   1.000e+00
   1.000e+00
   1.000e+00
   1.000e+00
   1.000e+00
   1.000e+00
   1.000e+00
   1.000e+00
   1.000e+00
   1.000e+00
   1.000e+00
   1.000e+00
   1.000e+00
   1.000e+00
   1.000e+00
   1.000e+00
   1.000e+00
   1.000e+00
   1.000e+00
   1.000e+00
   1.000e+00
   1.000e+00
   1.000e+00
   1.000e+00
   1.000e+00
   1.000e+00
   1.000e+00
   1.000e+00
   1.000e+00
   1.000e+00
   1.000e+00
   1.000e+00
   1.000e+00
   1.000e+00
   1.000e+00
   1.000e+00
   1.000e+00
   1.000e+00
   1.000e+00
   1.000e+00
   1.000e+00
   1.000e+00
   1.000e+00
   1.000e+00
   1.000e+00
   1.000e+00
   1.000e+00
   1.000e+00
   1.000e+00
   1.000e+00
   1.000e+00
   1.000e+00
   1.000e+00
   1.000e+00
   1.000e+00
   1.000e+00
   1.000e+00
   1.000e+00
   1.000e+00
   1.000e+00
   1.000e+00
   1.000e+00
   1.000e+00
   1.000e+00
   1.000e+00
   1.000e+00
   1.000e+00
   1.000e+00
   1.000e+00
   1.000e+00
   1.000e+00
   1.000e+00
   1.000e+00
   1.000e+00
   1.000e+00
   1.000e+00
   1.000e+00
   1.000e+00
   1.000e+00
   1.000e+00
   1.000e+00
   1.000e+00
   1.000e+00
   1.000e+00
   1.000e+00
   1.000e+00
   1.000e+00
   1.000e+00
   1.000e+00
   1.000e+00
   1.000e+00
   1.000e+00
   1.000e+00
   1.000e+00
   1.000e+00
   1.000e+00
   1.000e+00
   1.000e+00
   1.000e+00
   1.000e+00
   1.000e+00
   1.000e+00
   1.000e+00
   1.000e+00
   1.000e+00
   1.000e+00
   1.000e+00
   1.000e+00
   1.000e+00
   1.000e+00
   1.000e+00
   1.000e+00
   1.000e+00
   1.000e+00
   1.000e+00
   1.000e+00
   1.000e+00
   1.000e+00
   1.000e+00
   1.000e+00
   1.000e+00
   1.000e+00
   1.000e+00
   1.000e+00
   1.000e+00
   1.000e+00
   1.000e+00
   1.000e+00
   1.000e+00
   1.000e+00
   1.000e+00
   1.000e+00
   1.000e+00
   1.000e+00
   1.000e+00
   1.000e+00
   1.000e+00
   1.000e+00
   1.000e+00
   1.000e+00
   1.000e+00
   1.000e+00
   1.000e+00
   1.000e+00
   1.000e+00
   1.000e+00
   1.000e+00
   1.000e+00
   1.000e+00
   1.000e+00
   1.000e+00
   1.000e+00
   1.000e+00
   1.000e+00
   1.000e+00
   1.000e+00
   1.000e+00
   1.000e+00
   1.000e+00
   1.000e+00
   1.000e+00
   1.000e+00
   1.000e+00
   1.000e+00
   1.000e+00
   1.000e+00
   1.000e+00
   1.000e+00
   1.000e+00
   1.000e+00
   1.000e+00
   1.000e+00
   1.000e+00
   1.000e+00
   1.000e+00
   1.000e+00
   1.000e+00
   1.000e+00
   1.000e+00
   1.000e+00
   1.000e+00
   1.000e+00
   1.000e+00
   1.000e+00
   1.000e+00
   1.000e+00
   1.000e+00
   1.000e+00
   1.000e+00
   1.000e+00
   1.000e+00
   1.000e+00
   1.000e+00
   1.000e+00
   1.000e+00
   1.000e+00
   1.000e+00
   1.000e+00
   1.000e+00
   1.000e+00
   1.000e+00
   1.000e+00
   1.000e+00
   1.000e+00
   1.000e+00
   1.000e+00
   1.000e+00
   1.000e+00
   1.000e+00
   1.000e+00
   1.000e+00
   1.000e+00
   1.000e+00
   1.000e+00
   1.000e+00
   1.000e+00
   1.000e+00
   1.000e+00
   1.000e+00
   1.000e+00
   1.000e+00
   1.000e+00
   1.000e+00
   1.000e+00
   1.000e+00
   1.000e+00
   1.000e+00
   1.000e+00
   1.000e+00
   1.000e+00
   1.000e+00
   1.000e+00
   1.000e+00
   1.000e+00
   1.000e+00
   1.000e+00
   1.000e+00
   1.000e+00
   1.000e+00
   1.000e+00
   1.000e+00
   1.000e+00
   1.000e+00
   1.000e+00
   1.000e+00
   1.000e+00
   1.000e+00
   1.000e+00
   1.000e+00
   1.000e+00
   1.000e+00
   1.000e+00
   1.000e+00
   1.000e+00
   1.000e+00
   1.000e+00
   1.000e+00
   1.000e+00
   1.000e+00
   1.000e+00
   1.000e+00
   1.000e+00
   1.000e+00
   1.000e+00
   1.000e+00
   1.000e+00
   1.000e+00
   1.000e+00
   1.000e+00
   1.000e+00
   1.000e+00
   1.000e+00
   1.000e+00
   1.000e+00
   1.000e+00
   1.000e+00
   1.000e+00
   1.000e+00
   1.000e+00
   1.000e+00
   1.000e+00
   1.000e+00
   1.000e+00
   1.000e+00
   1.000e+00
   1.000e+00
   1.000e+00
   1.000e+00
   1.000e+00
   1.000e+00
   1.000e+00
   1.000e+00
   1.000e+00
   1.000e+00
   1.000e+00
   1.000e+00
   1.000e+00
   1.000e+00
   1.000e+00
   1.000e+00
   1.000e+00
   1.000e+00
   1.000e+00
   1.000e+00
   1.000e+00
   1.000e+00
   1.000e+00
   1.000e+00
   1.000e+00
   1.000e+00
   1.000e+00
   1.000e+00
   1.000e+00
   1.000e+00
   1.000e+00
   1.000e+00
   1.000e+00
   1.000e+00
   1.000e+00
   1.000e+00
   1.000e+00
   1.000e+00
   1.000e+00
   1.000e+00
   1.000e+00
   1.000e+00
   1.000e+00
   1.000e+00
   1.000e+00
   1.000e+00
   1.000e+00
   1.000e+00
   1.000e+00
   1.000e+00
   1.000e+00
   1.000e+00
   1.000e+00
   1.000e+00
   1.000e+00
   1.000e+00
   1.000e+00
   1.000e+00
   1.000e+00
   1.000e+00
   1.000e+00
   1.000e+00
   1.000e+00
   1.000e+00
   1.000e+00
   1.000e+00
   1.000e+00
   1.000e+00
   1.000e+00
   1.000e+00
   1.000e+00
   1.000e+00
   1.000e+00
   1.000e+00
   1.000e+00
   1.000e+00
   1.000e+00
   1.000e+00
   1.000e+00
   1.000e+00
   1.000e+00
   1.000e+00
   1.000e+00
   1.000e+00
   1.000e+00
   1.000e+00
   1.000e+00
   1.000e+00
   1.000e+00
   1.000e+00
   1.000e+00
   1.000e+00
   1.000e+00
   1.000e+00
   1.000e+00
   1.000e+00
   1.000e+00
   1.000e+00
   1.000e+00
   1.000e+00
   1.000e+00
   1.000e+00
   1.000e+00
   1.000e+00
   1.000e+00
   1.000e+00
   1.000e+00
   1.000e+00
   1.000e+00
   1.000e+00
   1.000e+00
   1.000e+00
   1.000e+00
   1.000e+00
   1.000e+00
   1.000e+00
   1.000e+00
   1.000e+00
   1.000e+00
   1.000e+00
   1.000e+00
   1.000e+00
   1.000e+00
   1.000e+00

SCALARS vonMisesStress float
LOOKUP_TABLE default
   0.000e+00
   0.000e+00
   0.000e+00
   0.000e+00
   0.000e+00
   0.000e+00
   0.000e+00
   0.000e+00
   0.000e+00
   0.000e+00
   0.000e+00
   0.000e+00
   0.000e+00
   0.000e+00
   0.000e+00
   0.000e+00
   0.000e+00
   0.000e+00
   0.000e+00
   0.000e+00
   0.000e+00
   0.000e+00
   0.000e+00
   0.000e+00
   0.000e+00
   0.000e+00
   0.000e+00
   0.000e+00
   0.000e+00
   0.000e+00
   0.000e+00
   0.000e+00
   0.000e+00
   0.000e+00
   0.000e+00
   0.000e+00
   0.000e+00
   0.000e+00
   0.000e+00
   0.000e+00
   0.000e+00
   0.000e+00
   0.000e+00
   0.000e+00
   0.000e+00
   0.000e+00
   0.000e+00
   0.000e+00
   0.000e+00
   0.000e+00
   0.000e+00
   0.000e+00
   0.000e+00
   0.000e+00
   0.000e+00
   0.000e+00
   0.000e+00
   0.000e+00
   0.000e+00
   0.000e+00
   0.000e+00
   0.000e+00
   0.000e+00
   0.000e+00
   0.000e+00
   0.000e+00
   0.000e+00
   0.000e+00
   0.000e+00
   0.000e+00
   0.000e+00
   0.000e+00
   0.000e+00
   0.000e+00
   0.000e+00
   0.000e+00
   0.000e+00
   0.000e+00
   0.000e+00
   0.000e+00
   0.000e+00
   0.000e+00
   0.000e+00
   0.000e+00
   0.000e+00
   0.000e+00
   0.000e+00
   0.000e+00
   0.000e+00
   0.000e+00
   0.000e+00
   0.000e+00
   0.000e+00
   0.000e+00
   0.000e+00
   0.000e+00
   0.000e+00
   0.000e+00
   0.000e+00
   0.000e+00
   0.000e+00
   0.000e+00
   0.000e+00
   0.000e+00
   0.000e+00
   0.000e+00
   0.000e+00
   0.000e+00
   0.000e+00
   0.000e+00
   0.000e+00
   0.000e+00
   0.000e+00
   0.000e+00
   0.000e+00
   0.000e+00
   0.000e+00
   0.000e+00
   0.000e+00
   0.000e+00
   0.000e+00
   0.000e+00
   0.000e+00
   0.000e+00
   0.000e+00
   0.000e+00
   0.000e+00
   0.000e+00
   0.000e+00
   0.000e+00
   0.000e+00
   0.000e+00
   0.000e+00
   0.000e+00
   0.000e+00
   0.000e+00
   0.000e+00
   0.000e+00
   0.000e+00
   0.000e+00
   0.000e+00
   0.000e+00
   0.000e+00
   0.000e+00
   0.000e+00
   0.000e+00
   0.000e+00
   0.000e+00
   0.000e+00
   0.000e+00
   0.000e+00
   0.000e+00
   0.000e+00
   0.000e+00
   0.000e+00
   0.000e+00
   0.000e+00
   0.000e+00
   0.000e+00
   0.000e+00
   0.000e+00
   0.000e+00
   0.000e+00
   0.000e+00
   0.000e+00
   0.000e+00
   0.000e+00
   0.000e+00
   0.000e+00
   0.000e+00
   0.000e+00
   0.000e+00
   0.000e+00
   0.000e+00
   0.000e+00
   0.000e+00
   0.000e+00
   0.000e+00
   0.000e+00
   0.000e+00
   0.000e+00
   0.000e+00
   0.000e+00
   0.000e+00
   0.000e+00
   0.000e+00
   0.000e+00
   0.000e+00
   0.000e+00
   0.000e+00
   0.000e+00
   0.000e+00
   0.000e+00
   0.000e+00
   0.000e+00
   0.000e+00
   0.000e+00
   0.000e+00
   0.000e+00
   0.000e+00
   0.000e+00
   0.000e+00
   0.000e+00
   0.000e+00
   0.000e+00
   0.000e+00
   0.000e+00
   0.000e+00
   0.000e+00
   0.000e+00
   0.000e+00
   0.000e+00
   0.000e+00
   0.000e+00
   0.000e+00
   0.000e+00
   0.000e+00
   0.000e+00
   0.000e+00
   0.000e+00
   0.000e+00
   0.000e+00
   0.000e+00
   0.000e+00
   0.000e+00
   0.000e+00
   0.000e+00
   0.000e+00
   0.000e+00
   0.000e+00
   0.000e+00
   0.000e+00
   0.000e+00
   0.000e+00
   0.000e+00
   0.000e+00
   0.000e+00
   0.000e+00
   0.000e+00
   0.000e+00
   0.000e+00
   0.000e+00
   0.000e+00
   0.000e+00
   0.000e+00
   0.000e+00
   0.000e+00
   0.000e+00
   0.000e+00
   0.000e+00
   0.000e+00
   0.000e+00
   0.000e+00
   0.000e+00
   0.000e+00
   0.000e+00
   0.000e+00
   0.000e+00
   0.000e+00
   0.000e+00
   0.000e+00
   0.000e+00
   0.000e+00
   0.000e+00
   0.000e+00
   0.000e+00
   0.000e+00
   0.000e+00
   0.000e+00
   0.000e+00
   0.000e+00
   0.000e+00
   0.000e+00
   0.000e+00
   0.000e+00
   0.000e+00
   0.000e+00
   0.000e+00
   0.000e+00
   0.000e+00
   0.000e+00
   0.000e+00
   0.000e+00
   0.000e+00
   0.000e+00
   0.000e+00
   0.000e+00
   0.000e+00
   0.000e+00
   0.000e+00
   0.000e+00
   0.000e+00
   0.000e+00
   0.000e+00
   0.000e+00
   0.000e+00
   0.000e+00
   0.000e+00
   0.000e+00
   0.000e+00
   0.000e+00
   0.000e+00
   0.000e+00
   0.000e+00
   0.000e+00
   0.000e+00
   0.000e+00
   0.000e+00
   0.000e+00
   0.000e+00
   0.000e+00
   0.000e+00
   0.000e+00
   0.000e+00
   0.000e+00
   0.000e+00
   0.000e+00
   0.000e+00
   0.000e+00
   0.000e+00
   0.000e+00
   0.000e+00
   0.000e+00
   0.000e+00
   0.000e+00
   0.000e+00
   0.000e+00
   0.000e+00
   0.000e+00
   0.000e+00
   0.000e+00
   0.000e+00
   0.000e+00
   0.000e+00
   0.000e+00
   0.000e+00
   0.000e+00
   0.000e+00
   0.000e+00
   0.000e+00
   0.000e+00
   0.000e+00
   0.000e+00
   0.000e+00
   0.000e+00
   0.000e+00
   0.000e+00
   0.000e+00
   0.000e+00
   0.000e+00
   0.000e+00
   0.000e+00
   0.000e+00
   0.000e+00
   0.000e+00
   0.000e+00
   0.000e+00
   0.000e+00
   0.000e+00
   0.000e+00
   0.000e+00
   0.000e+00
   0.000e+00
   0.000e+00
   0.000e+00
   0.000e+00
   0.000e+00
   0.000e+00
   0.000e+00
   0.000e+00
   0.000e+00
   0.000e+00
   0.000e+00
   0.000e+00
   0.000e+00
   0.000e+00
   0.000e+00
   0.000e+00
   0.000e+00
   0.000e+00
   0.000e+00
   0.000e+00
   0.000e+00
   0.000e+00
   0.000e+00
   0.000e+00
   0.000e+00
   0.000e+00
   0.000e+00
   0.000e+00
   0.000e+00
   0.000e+00
   0.000e+00
   0.000e+00
   0.000e+00
   0.000e+00
   0.000e+00
   0.000e+00
   0.000e+00
   0.000e+00
   0.000e+00
   0.000e+00
   0.000e+00
   0.000e+00
   0.000e+00
   0.000e+00
   0.000e+00
   0.000e+00
   0.000e+00
   0.000e+00
   0.000e+00
   0.000e+00
   0.000e+00
   0.000e+00
   0.000e+00
   0.000e+00
   0.000e+00
   0.000e+00
   0.000e+00
   0.000e+00
   0.000e+00
   0.000e+00
   0.000e+00
   0.000e+00
   0.000e+00
   0.000e+00
   0.000e+00
   0.000e+00
   0.000e+00
   0.000e+00
   0.000e+00
   0.000e+00
   0.000e+00
   0.000e+00
   0.000e+00
   0.000e+00
   0.000e+00
   0.000e+00
   0.000e+00
   0.000e+00
   0.000e+00
   0.000e+00
   0.000e+00
   0.000e+00
   0.000e+00
   0.000e+00
   0.000e+00
   0.000e+00
   0.000e+00
   0.000e+00
   0.000e+00
   0.000e+00
   0.000e+00
   0.000e+00
   0.000e+00
   0.000e+00
   0.000e+00
   0.000e+00
   0.000e+00
   0.000e+00
   0.000e+00
   0.000e+00
   0.000e+00
   0.000e+00
   0.000e+00
   0.000e+00
   0.000e+00
   0.000e+00
   0.000e+00
   0.000e+00
   0.000e+00
   0.000e+00
   0.000e+00
   0.000e+00
   0.000e+00
   0.000e+00
   0.000e+00
   0.000e+00
   0.000e+00
   0.000e+00
   0.000e+00
   0.000e+00
   0.000e+00
   0.000e+00
   0.000e+00
   0.000e+00
   0.000e+00
   0.000e+00
   0.000e+00
   0.000e+00
   0.000e+00
   0.000e+00
   0.000e+00
   0.000e+00
   0.000e+00
   0.000e+00
   0.000e+00
   0.000e+00
   0.000e+00
   0.000e+00
   0.000e+00
   0.000e+00
   0.000e+00
   0.000e+00
   0.000e+00
   0.000e+00
   0.000e+00
   0.000e+00
   0.000e+00
   0.000e+00
   0.000e+00
   0.000e+00
   0.000e+00
   0.000e+00
   0.000e+00
   0.000e+00
   0.000e+00
   0.000e+00
   0.000e+00
   0.000e+00
   0.000e+00
   0.000e+00
   0.000e+00
   0.000e+00
   0.000e+00
   0.000e+00
   0.000e+00
   0.000e+00
   0.000e+00
   0.000e+00
   0.000e+00
   0.000e+00
   0.000e+00
   0.000e+00
   0.000e+00
   0.000e+00
   0.000e+00
   0.000e+00
   0.000e+00
   0.000e+00
   0.000e+00
   0.000e+00
   0.000e+00
   0.000e+00
   0.000e+00
   0.000e+00
   0.000e+00
   0.000e+00
   0.000e+00
   0.000e+00
   0.000e+00
   0.000e+00
   0.000e+00
   0.000e+00
   0.000e+00
   0.000e+00
   0.000e+00
   0.000e+00
   0.000e+00
   0.000e+00
   0.000e+00
   0.000e+00
   0.000e+00
   0.000e+00
   0.000e+00
   0.000e+00
   0.000e+00
   0.000e+00
   0.000e+00
   0.000e+00
   0.000e+00
   0.000e+00
   0.000e+00
   0.000e+00
   0.000e+00
   0.000e+00
   0.000e+00
   0.000e+00
   0.000e+00
   0.000e+00
   0.000e+00
   0.000e+00
   0.000e+00
   0.000e+00
   0.000e+00
   0.000e+00
   0.000e+00
   0.000e+00
   0.000e+00
   0.000e+00
   0.000e+00
   0.000e+00
   0.000e+00
   0.000e+00
   0.000e+00
   0.000e+00
   0.000e+00
   0.000e+00
   0.000e+00
   0.000e+00
   0.000e+00
   0.000e+00
   0.000e+00
   0.000e+00
   0.000e+00
   0.000e+00
   0.000e+00
   0.000e+00
   0.000e+00
   0.000e+00
   0.000e+00
   0.000e+00
   0.000e+00
   0.000e+00
   0.000e+00
   0.000e+00
   0.000e+00
   0.000e+00
   0.000e+00
   0.000e+00
   0.000e+00
   0.000e+00
   0.000e+00
   0.000e+00
   0.000e+00
   0.000e+00
   0.000e+00
   0.000e+00
   0.000e+00
   0.000e+00
   0.000e+00
   0.000e+00
   0.000e+00
   0.000e+00
   0.000e+00
   0.000e+00
   0.000e+00
   0.000e+00
   0.000e+00
   0.000e+00
   0.000e+00
   0.000e+00
   0.000e+00
   0.000e+00
   0.000e+00
   0.000e+00
   0.000e+00
   0.000e+00
   0.000e+00
   0.000e+00
   0.000e+00
   0.000e+00
   0.000e+00
   0.000e+00
   0.000e+00
   0.000e+00
   0.000e+00
   0.000e+00
   0.000e+00
   0.000e+00
   0.000e+00
   0.000e+00
   0.000e+00
   0.000e+00
   0.000e+00
   0.000e+00
   0.000e+00
   0.000e+00
   0.000e+00
   0.000e+00
   0.000e+00
   0.000e+00
   0.000e+00
   0.000e+00
   0.000e+00
   0.000e+00
   0.000e+00
   0.000e+00
   0.000e+00
   0.000e+00
   0.000e+00
   0.000e+00
   0.000e+00
   0.000e+00
   0.000e+00
   0.000e+00
   0.000e+00
   0.000e+00
   0.000e+00
   0.000e+00
   0.000e+00
   0.000e+00
   0.000e+00
   0.000e+00
   0.000e+00
   0.000e+00
   0.000e+00
   0.000e+00
   0.000e+00
   0.000e+00
   0.000e+00
   0.000e+00
   0.000e+00
   0.000e+00
   0.000e+00
   0.000e+00
   0.000e+00
   0.000e+00
   0.000e+00
   0.000e+00
   0.000e+00
   0.000e+00
   0.000e+00
   0.000e+00
   0.000e+00
   0.000e+00
   0.000e+00
   0.000e+00
   0.000e+00
   0.000e+00
   0.000e+00
   0.000e+00
   0.000e+00
   0.000e+00
   0.000e+00
   0.000e+00
   0.000e+00
   0.000e+00
   0.000e+00
   0.000e+00
   0.000e+00
   0.000e+00
   0.000e+00
   0.000e+00
   0.000e+00
   0.000e+00
   0.000e+00
   0.000e+00
   0.000e+00
   0.000e+00
   0.000e+00
   0.000e+00
   0.000e+00
   0.000e+00
   0.000e+00
   0.000e+00
   0.000e+00
   0.000e+00
   0.000e+00
   0.000e+00
   0.000e+00
   0.000e+00
   0.000e+00
   0.000e+00
   0.000e+00
   0.000e+00
   0.000e+00
   0.000e+00
   0.000e+00
   0.000e+00
   0.000e+00
   0.000e+00
   0.000e+00
   0.000e+00
   0.000e+00
   0.000e+00
   0.000e+00
   0.000e+00
   0.000e+00
   0.000e+00
   0.000e+00
   0.000e+00
   0.000e+00
   0.000e+00
   0.000e+00
   0.000e+00
   0.000e+00
   0.000e+00
   0.000e+00
   0.000e+00
   0.000e+00
   0.000e+00
   0.000e+00
   0.000e+00
   0.000e+00
   0.000e+00
   0.000e+00
   0.000e+00
   0.000e+00
   0.000e+00
   0.000e+00
   0.000e+00
   0.000e+00
   0.000e+00
   0.000e+00
   0.000e+00
   0.000e+00
   0.000e+00
   0.000e+00
   0.000e+00
   0.000e+00
   0.000e+00
   0.000e+00
   0.000e+00
   0.000e+00
   0.000e+00
   0.000e+00
   0.000e+00
   0.000e+00
   0.000e+00
   0.000e+00
   0.000e+00
   0.000e+00
   0.000e+00
   0.000e+00
   0.000e+00
   0.000e+00
   0.000e+00
   0.000e+00
   0.000e+00
   0.000e+00
   0.000e+00
   0.000e+00
   0.000e+00
   0.000e+00
   0.000e+00
   0.000e+00
   0.000e+00
   0.000e+00
   0.000e+00
   0.000e+00
   0.000e+00
   0.000e+00
   0.000e+00
   0.000e+00
   0.000e+00
   0.000e+00
   0.000e+00
   0.000e+00
   0.000e+00
   0.000e+00
   0.000e+00
   0.000e+00
   0.000e+00
   0.000e+00
   0.000e+00
   0.000e+00
   0.000e+00
   0.000e+00
   0.000e+00
   0.000e+00
   0.000e+00
   0.000e+00
   0.000e+00
   0.000e+00
   0.000e+00
   0.000e+00
   0.000e+00
   0.000e+00
   0.000e+00
   0.000e+00
   0.000e+00
   0.000e+00
   0.000e+00
   0.000e+00
   0.000e+00
   0.000e+00
   0.000e+00
   0.000e+00
   0.000e+00
   0.000e+00
   0.000e+00
   0.000e+00
   0.000e+00
   0.000e+00
   0.000e+00
   0.000e+00
   0.000e+00
   0.000e+00
   0.000e+00
   0.000e+00
   0.000e+00
   0.000e+00
   0.000e+00
   0.000e+00
   0.000e+00
   0.000e+00
   0.000e+00
   0.000e+00
   0.000e+00
   0.000e+00
   0.000e+00
   0.000e+00
   0.000e+00
   0.000e+00
   0.000e+00
   0.000e+00
   0.000e+00
   0.000e+00
   0.000e+00
   0.000e+00
   0.000e+00
   0.000e+00
   0.000e+00
   0.000e+00
   0.000e+00
   0.000e+00
   0.000e+00
   0.000e+00
   0.000e+00
   0.000e+00
   0.000e+00
   0.000e+00
   0.000e+00
   0.000e+00
   0.000e+00
   0.000e+00
   0.000e+00
   0.000e+00
   0.000e+00
   0.000e+00
   0.000e+00
   0.000e+00
   0.000e+00
   0.000e+00
   0.000e+00
   0.000e+00
   0.000e+00
   0.000e+00
   0.000e+00
   0.000e+00
   0.000e+00
   0.000e+00
   0.000e+00
   0.000e+00
   0.000e+00
   0.000e+00
   0.000e+00
   0.000e+00
   0.000e+00
   0.000e+00
   0.000e+00
   0.000e+00
   0.000e+00
   0.000e+00
   0.000e+00
   0.000e+00
   0.000e+00
   0.000e+00
   0.000e+00
   0.000e+00
   0.000e+00
   0.000e+00
   0.000e+00
   0.000e+00
   0.000e+00
   0.000e+00
   0.000e+00
   0.000e+00
   0.000e+00
   0.000e+00
   0.000e+00
   0.000e+00
   0.000e+00
   0.000e+00
   0.000e+00
   0.000e+00
   0.000e+00
   0.000e+00
   0.000e+00
   0.000e+00
   0.000e+00
   0.000e+00
   0.000e+00
   0.000e+00
   0.000e+00
   0.000e+00
   0.000e+00
   0.000e+00
   0.000e+00
   0.000e+00
   0.000e+00
   0.000e+00
   0.000e+00
   0.000e+00
   0.000e+00
   0.000e+00
   0.000e+00
   0.000e+00
   0.000e+00
   0.000e+00
   0.000e+00
   0.000e+00
   0.000e+00
   0.000e+00
   0.000e+00
   0.000e+00
   0.000e+00
   0.000e+00
   0.000e+00
   0.000e+00
   0.000e+00
   0.000e+00
   0.000e+00
   0.000e+00
   0.000e+00
   0.000e+00
   0.000e+00
   0.000e+00
   0.000e+00
   0.000e+00
   0.000e+00
   0.000e+00
   0.000e+00
   0.000e+00
   0.000e+00
   0.000e+00
   0.000e+00
   0.000e+00
   0.000e+00
   0.000e+00
   0.000e+00
   0.000e+00
   0.000e+00
   0.000e+00
   0.000e+00
   0.000e+00
   0.000e+00
   0.000e+00
   0.000e+00
   0.000e+00
   0.000e+00
   0.000e+00
   0.000e+00
   0.000e+00
   0.000e+00
   0.000e+00
   0.000e+00
   0.000e+00
   0.000e+00
   0.000e+00
   0.000e+00
   0.000e+00
   0.000e+00
   0.000e+00
   0.000e+00
   0.000e+00
   0.000e+00
   0.000e+00
   0.000e+00
   0.000e+00
   0.000e+00
   0.000e+00
   0.000e+00
   0.000e+00
   0.000e+00
   0.000e+00
   0.000e+00
   0.000e+00
   0.000e+00
   0.000e+00
   0.000e+00
   0.000e+00
   0.000e+00
   0.000e+00
   0.000e+00
   0.000e+00
   0.000e+00
   0.000e+00
   0.000e+00
   0.000e+00
   0.000e+00
   0.000e+00
   0.000e+00
   0.000e+00
   0.000e+00
   0.000e+00
   0.000e+00
   0.000e+00
   0.000e+00
   0.000e+00
   0.000e+00
   0.000e+00
   0.000e+00
   0.000e+00
   0.000e+00
   0.000e+00
   0.000e+00
   0.000e+00
   0.000e+00
   0.000e+00
   0.000e+00
   0.000e+00
   0.000e+00
   0.000e+00
   0.000e+00
   0.000e+00
   0.000e+00
   0.000e+00
   0.000e+00
   0.000e+00
   0.000e+00
   0.000e+00
   0.000e+00
   0.000e+00
   0.000e+00
   0.000e+00
   0.000e+00
   0.000e+00
   0.000e+00
   0.000e+00
   0.000e+00
   0.000e+00
   0.000e+00
   0.000e+00
   0.000e+00
   0.000e+00
   0.000e+00
   0.000e+00
   0.000e+00
   0.000e+00
   0.000e+00
   0.000e+00
   0.000e+00
   0.000e+00
   0.000e+00
   0.000e+00
   0.000e+00
   0.000e+00
   0.000e+00
   0.000e+00
   0.000e+00
   0.000e+00
   0.000e+00
   0.000e+00
   0.000e+00
   0.000e+00
   0.000e+00
   0.000e+00
   0.000e+00
   0.000e+00
   0.000e+00
   0.000e+00
   0.000e+00
   0.000e+00
   0.000e+00
   0.000e+00
   0.000e+00
   0.000e+00
   0.000e+00
   0.000e+00
   0.000e+00
   0.000e+00
   0.000e+00
   0.000e+00
   0.000e+00
   0.000e+00
   0.000e+00
   0.000e+00
   0.000e+00
   0.000e+00
   0.000e+00
   0.000e+00
   0.000e+00
   0.000e+00
   0.000e+00
   0.000e+00
   0.000e+00
   0.000e+00
   0.000e+00
   0.000e+00
   0.000e+00
   0.000e+00
   0.000e+00
   0.000e+00
   0.000e+00
   0.000e+00
   0.000e+00
   0.000e+00
   0.000e+00
   0.000e+00
   0.000e+00
   0.000e+00
   0.000e+00
   0.000e+00
   0.000e+00
   0.000e+00
   0.000e+00
   0.000e+00
   0.000e+00
   0.000e+00
   0.000e+00
   0.000e+00
   0.000e+00
   0.000e+00
   0.000e+00
   0.000e+00
   0.000e+00
   0.000e+00
   0.000e+00
   0.000e+00
   0.000e+00
   0.000e+00
   0.000e+00
   0.000e+00
   0.000e+00
   0.000e+00
   0.000e+00
   0.000e+00
   0.000e+00
   0.000e+00
   0.000e+00
   0.000e+00
   0.000e+00
   0.000e+00
   0.000e+00
   0.000e+00
   0.000e+00
   0.000e+00
   0.000e+00
   0.000e+00
   0.000e+00
   0.000e+00
   0.000e+00
   0.000e+00
   0.000e+00
   0.000e+00
   0.000e+00
   0.000e+00
   0.000e+00
   0.000e+00
   0.000e+00
   0.000e+00
   0.000e+00
   0.000e+00
   0.000e+00
   0.000e+00
   0.000e+00
   0.000e+00
   0.000e+00
   0.000e+00
   0.000e+00
   0.000e+00
   0.000e+00
   0.000e+00
   0.000e+00
   0.000e+00
   0.000e+00
   0.000e+00
   0.000e+00
   0.000e+00
   0.000e+00
   0.000e+00
   0.000e+00
   0.000e+00
   0.000e+00
   0.000e+00
   0.000e+00
   0.000e+00
   0.000e+00
   0.000e+00
   0.000e+00
   0.000e+00
   0.000e+00
   0.000e+00
   0.000e+00
   0.000e+00
   0.000e+00
   0.000e+00
   0.000e+00
   0.000e+00
   0.000e+00
   0.000e+00
   0.000e+00
   0.000e+00
   0.000e+00
   0.000e+00
   0.000e+00
   0.000e+00
   0.000e+00
   0.000e+00
   0.000e+00
   0.000e+00
   0.000e+00
   0.000e+00
   0.000e+00
   0.000e+00
   0.000e+00
   0.000e+00
   0.000e+00
   0.000e+00
   0.000e+00
   0.000e+00
   0.000e+00
   0.000e+00
   0.000e+00
   0.000e+00
   0.000e+00
   0.000e+00
   0.000e+00
   0.000e+00
   0.000e+00
   0.000e+00
   0.000e+00
   0.000e+00
   0.000e+00
   0.000e+00
   0.000e+00
   0.000e+00
   0.000e+00
   0.000e+00
   0.000e+00
   0.000e+00
   0.000e+00
   0.000e+00
   0.000e+00
   0.000e+00
   0.000e+00
   0.000e+00
   0.000e+00
   0.000e+00
   0.000e+00
   0.000e+00
   0.000e+00
   0.000e+00
   0.000e+00
   0.000e+00
   0.000e+00
   0.000e+00
   0.000e+00
   0.000e+00
   0.000e+00
   0.000e+00
   0.000e+00
   0.000e+00
   0.000e+00
   0.000e+00
   0.000e+00
   0.000e+00
   0.000e+00
   0.000e+00
   0.000e+00
   0.000e+00
   0.000e+00
   0.000e+00
   0.000e+00
   0.000e+00
   0.000e+00
   0.000e+00
   0.000e+00
   0.000e+00
   0.000e+00
   0.000e+00
   0.000e+00
   0.000e+00
   0.000e+00
   0.000e+00
   0.000e+00
   0.000e+00
   0.000e+00
   0.000e+00
   0.000e+00
   0.000e+00
   0.000e+00
   0.000e+00
   0.000e+00
   0.000e+00
   0.000e+00
   0.000e+00
   0.000e+00
   0.000e+00
   0.000e+00
   0.000e+00
   0.000e+00
   0.000e+00
   0.000e+00
   0.000e+00
   0.000e+00
   0.000e+00
   0.000e+00
   0.000e+00
   0.000e+00
   0.000e+00
   0.000e+00
   0.000e+00
   0.000e+00
   0.000e+00
   0.000e+00
   0.000e+00
   0.000e+00
   0.000e+00
   0.000e+00
   0.000e+00
   0.000e+00
   0.000e+00
   0.000e+00
   0.000e+00
   0.000e+00
   0.000e+00
   0.000e+00
   0.000e+00
   0.000e+00
   0.000e+00
   0.000e+00
   0.000e+00
   0.000e+00
   0.000e+00
   0.000e+00
   0.000e+00
   0.000e+00
   0.000e+00
   0.000e+00
   0.000e+00
   0.000e+00
   0.000e+00
   0.000e+00
   0.000e+00
   0.000e+00
   0.000e+00
   0.000e+00
   0.000e+00
   0.000e+00
   0.000e+00
   0.000e+00
   0.000e+00
   0.000e+00
   0.000e+00
   0.000e+00
   0.000e+00
   0.000e+00
   0.000e+00
   0.000e+00
   0.000e+00
   0.000e+00
   0.000e+00
   0.000e+00
   0.000e+00
   0.000e+00
   0.000e+00
   0.000e+00
   0.000e+00
   0.000e+00
   0.000e+00
   0.000e+00
   0.000e+00
   0.000e+00
   0.000e+00
   0.000e+00
   0.000e+00
   0.000e+00
   0.000e+00
   0.000e+00
   0.000e+00
   0.000e+00
   0.000e+00
   0.000e+00
   0.000e+00
   0.000e+00
   0.000e+00
   0.000e+00
   0.000e+00
   0.000e+00
   0.000e+00
   0.000e+00
   0.000e+00
   0.000e+00
   0.000e+00
   0.000e+00
   0.000e+00
   0.000e+00
   0.000e+00
   0.000e+00
   0.000e+00
   0.000e+00
   0.000e+00
   0.000e+00
   0.000e+00
   0.000e+00
   0.000e+00
   0.000e+00
   0.000e+00
   0.000e+00
   0.000e+00
   0.000e+00
   0.000e+00
   0.000e+00
   0.000e+00
   0.000e+00
   0.000e+00
   0.000e+00
   0.000e+00
   0.000e+00
   0.000e+00
   0.000e+00
   0.000e+00
   0.000e+00
   0.000e+00
   0.000e+00
   0.000e+00
   0.000e+00
   0.000e+00
   0.000e+00
   0.000e+00
   0.000e+00
   0.000e+00
   0.000e+00
   0.000e+00
   0.000e+00
   0.000e+00
   0.000e+00
   0.000e+00
   0.000e+00
   0.000e+00
   0.000e+00
   0.000e+00
   0.000e+00
   0.000e+00
   0.000e+00
   0.000e+00
   0.000e+00
   0.000e+00
   0.000e+00
   0.000e+00
   0.000e+00
   0.000e+00
   0.000e+00
   0.000e+00
   0.000e+00
   0.000e+00
   0.000e+00
   0.000e+00
   0.000e+00
   0.000e+00
   0.000e+00
   0.000e+00
   0.000e+00
   0.000e+00
   0.000e+00
   0.000e+00
   0.000e+00
   0.000e+00
   0.000e+00
   0.000e+00
   0.000e+00
   0.000e+00
   0.000e+00
   0.000e+00
   0.000e+00
   0.000e+00
   0.000e+00
   0.000e+00
   0.000e+00
   0.000e+00
   0.000e+00
   0.000e+00
   0.000e+00
   0.000e+00
   0.000e+00
   0.000e+00
   0.000e+00
   0.000e+00
   0.000e+00
   0.000e+00
   0.000e+00
   0.000e+00
   0.000e+00
   0.000e+00
   0.000e+00
   0.000e+00
   0.000e+00
   0.000e+00
   0.000e+00
   0.000e+00
   0.000e+00
   0.000e+00
   0.000e+00
   0.000e+00
   0.000e+00
   0.000e+00
   0.000e+00
   0.000e+00
   0.000e+00
   0.000e+00
   0.000e+00
   0.000e+00
   0.000e+00
   0.000e+00
   0.000e+00
   0.000e+00
   0.000e+00
   0.000e+00
   0.000e+00
   0.000e+00
   0.000e+00
   0.000e+00
   0.000e+00
   0.000e+00
   0.000e+00
   0.000e+00
   0.000e+00
   0.000e+00
   0.000e+00
   0.000e+00
   0.000e+00
   0.000e+00
   0.000e+00
   0.000e+00
   0.000e+00
   0.000e+00
   0.000e+00
   0.000e+00
   0.000e+00
   0.000e+00
   0.000e+00
   0.000e+00
   0.000e+00
   0.000e+00
   0.000e+00
   0.000e+00
   0.000e+00
   0.000e+00
   0.000e+00
   0.000e+00
   0.000e+00
   0.000e+00
   0.000e+00
   0.000e+00
   0.000e+00
   0.000e+00
   0.000e+00
   0.000e+00
   0.000e+00
   0.000e+00
   0.000e+00
   0.000e+00
   0.000e+00
   0.000e+00
   0.000e+00
   0.000e+00
   0.000e+00
   0.000e+00
   0.000e+00
   0.000e+00
   0.000e+00
   0.000e+00
   0.000e+00
   0.000e+00
   0.000e+00
   0.000e+00
   0.000e+00
   0.000e+00
   0.000e+00
   0.000e+00
   0.000e+00
   0.000e+00
   0.000e+00
   0.000e+00
   0.000e+00
   0.000e+00
   0.000e+00
   0.000e+00
   0.000e+00
   0.000e+00
   0.000e+00
   0.000e+00
   0.000e+00
   0.000e+00
   0.000e+00
   0.000e+00
   0.000e+00
   0.000e+00
   0.000e+00
   0.000e+00
   0.000e+00
   0.000e+00
   0.000e+00
   0.000e+00
   0.000e+00
   0.000e+00
   0.000e+00
   0.000e+00
   0.000e+00
   0.000e+00
   0.000e+00
   0.000e+00
   0.000e+00
   0.000e+00
   0.000e+00
   0.000e+00
   0.000e+00
   0.000e+00
   0.000e+00
   0.000e+00
   0.000e+00
   0.000e+00
   0.000e+00
   0.000e+00
   0.000e+00
   0.000e+00
   0.000e+00
   0.000e+00
   0.000e+00
   0.000e+00
   0.000e+00
   0.000e+00
   0.000e+00
   0.000e+00
   0.000e+00
   0.000e+00
   0.000e+00
   0.000e+00
   0.000e+00
   0.000e+00
   0.000e+00
   0.000e+00
   0.000e+00
   0.000e+00
   0.000e+00
   0.000e+00
   0.000e+00
   0.000e+00
   0.000e+00
   0.000e+00
   0.000e+00
   0.000e+00
   0.000e+00
   0.000e+00
   0.000e+00
   0.000e+00
   0.000e+00
   0.000e+00
   0.000e+00
   0.000e+00
   0.000e+00
   0.000e+00
   0.000e+00
   0.000e+00
   0.000e+00
   0.000e+00
   0.000e+00
   0.000e+00
   0.000e+00
   0.000e+00
   0.000e+00
   0.000e+00
   0.000e+00
   0.000e+00
   0.000e+00
   0.000e+00
   0.000e+00
   0.000e+00
   0.000e+00
   0.000e+00
   0.000e+00
   0.000e+00
   0.000e+00
   0.000e+00
   0.000e+00
   0.000e+00
   0.000e+00
   0.000e+00
   0.000e+00
   0.000e+00
   0.000e+00
   0.000e+00
   0.000e+00
   0.000e+00
   0.000e+00
   0.000e+00
   0.000e+00
   0.000e+00
   0.000e+00
   0.000e+00
   0.000e+00
   0.000e+00
   0.000e+00
   0.000e+00
   0.000e+00
   0.000e+00
   0.000e+00
   0.000e+00
   0.000e+00
   0.000e+00
   0.000e+00
   0.000e+00
   0.000e+00
   0.000e+00
   0.000e+00
   0.000e+00
   0.000e+00
   0.000e+00
   0.000e+00
   0.000e+00
   0.000e+00
   0.000e+00
   0.000e+00
   0.000e+00
   0.000e+00
   0.000e+00
   0.000e+00
   0.000e+00
   0.000e+00
   0.000e+00
   0.000e+00
   0.000e+00
   0.000e+00
   0.000e+00
   0.000e+00
   0.000e+00
   0.000e+00
   0.000e+00
   0.000e+00
   0.000e+00
   0.000e+00
   0.000e+00
   0.000e+00
   0.000e+00
   0.000e+00
   0.000e+00
   0.000e+00
   0.000e+00
   0.000e+00
   0.000e+00
   0.000e+00
   0.000e+00
   0.000e+00
   0.000e+00
   0.000e+00
   0.000e+00
   0.000e+00
   0.000e+00
   0.000e+00
   0.000e+00
   0.000e+00
   0.000e+00
   0.000e+00
   0.000e+00
   0.000e+00
   0.000e+00
   0.000e+00
   0.000e+00
   0.000e+00
   0.000e+00
   0.000e+00
   0.000e+00
   0.000e+00
   0.000e+00
   0.000e+00
   0.000e+00
   0.000e+00
   0.000e+00
   0.000e+00
   0.000e+00
   0.000e+00
   0.000e+00
   0.000e+00
   0.000e+00
   0.000e+00
   0.000e+00
   0.000e+00
   0.000e+00
   0.000e+00
   0.000e+00
   0.000e+00
   0.000e+00
   0.000e+00
   0.000e+00
   0.000e+00
   0.000e+00
   0.000e+00
   0.000e+00
   0.000e+00
   0.000e+00
   0.000e+00
   0.000e+00
   0.000e+00
   0.000e+00
   0.000e+00
   0.000e+00
   0.000e+00
   0.000e+00
   0.000e+00
   0.000e+00
   0.000e+00
   0.000e+00
   0.000e+00
   0.000e+00
   0.000e+00
   0.000e+00
   0.000e+00
   0.000e+00
   0.000e+00
   0.000e+00
   0.000e+00
   0.000e+00
   0.000e+00
   0.000e+00
   0.000e+00
   0.000e+00
   0.000e+00
   0.000e+00
   0.000e+00
   0.000e+00
   0.000e+00
   0.000e+00
   0.000e+00
   0.000e+00
   0.000e+00
   0.000e+00
   0.000e+00
   0.000e+00
   0.000e+00

VECTORS gradient float
   8.492e-02   5.362e-01   0.000e+00
   4.487e-02   5.355e-01   0.000e+00
  -1.305e-01   5.777e-01   0.000e+00
  -3.555e-01   6.011e-01   0.000e+00
  -5.170e-01   5.170e-01   0.000e+00
  -5.663e-01   3.848e-01   0.000e+00
  -6.055e-01   1.042e-01   0.000e+00
   9.587e-01   2.016e-01   0.000e+00
  -5.773e-01  -8.923e-03   0.000e+00
   2.926e-01  -2.854e-01   0.000e+00
   5.306e-01  -1.185e+00   0.000e+00
  -7.041e-01  -4.164e-01   0.000e+00
  -7.948e-01  -7.007e-01   0.000e+00
  -9.171e-01  -7.694e-01   0.000e+00
  -3.448e-01  -7.968e-01   0.000e+00
  -1.048e-01  -6.619e-01   0.000e+00
   3.590e-02  -6.235e-01   0.000e+00
   7.519e-01   2.707e-01   0.000e+00
   7.700e-01   4.554e-01   0.000e+00
   5.428e-01   6.116e-01   0.000e+00
   4.080e-01   6.004e-01   0.000e+00
   2.018e-01   5.606e-01   0.000e+00
   2.391e-01  -6.640e-01   0.000e+00
   3.133e-01  -7.280e-01   0.000e+00
   5.647e-01  -5.647e-01   0.000e+00
   6.079e-01  -4.131e-01   0.000e+00
  -6.070e-01  -7.944e-02   0.000e+00
   6.213e-01  -1.707e-02   0.000e+00
   6.377e-01   2.003e-02   0.000e+00
   6.905e-01   9.334e-02   0.000e+00
   7.151e-01   6.013e-02   0.000e+00
   8.008e-01   2.243e-01   0.000e+00
   7.744e-01   3.253e-01   0.000e+00
   9.621e-01   2.040e-01   0.000e+00
   7.223e-01   5.158e-01   0.000e+00
   8.159e-01   4.978e-01   0.000e+00
   1.753e-01   6.572e-01   0.000e+00
   5.415e-01   6.143e-01   0.000e+00
   2.948e-01   5.843e-01   0.000e+00
   4.320e-01   6.634e-01   0.000e+00
   2.470e-01   5.709e-01   0.000e+00
   1.603e-01   5.519e-01   0.000e+00
   8.224e-02   5.409e-01   0.000e+00
   2.446e-01   5.737e-01   0.000e+00
   1.989e-01   5.639e-01   0.000e+00
  -1.737e-02   5.527e-01   0.000e+00
   1.211e-01   5.459e-01   0.000e+00
  -9.014e-02   5.691e-01   0.000e+00
   7.240e-03   5.410e-01   0.000e+00
  -1.014e-01   6.079e-01   0.000e+00
  -2.677e-01   5.964e-01   0.000e+00
  -3.062e-01   6.051e-01   0.000e+00
  -4.037e-01   5.941e-01   0.000e+00
  -4.870e-01   5.285e-01   0.000e+00
  -4.491e-01   6.344e-01   0.000e+00
  -5.404e-01   4.764e-01   0.000e+00
  -5.789e-01   4.662e-01   0.000e+00
  -5.677e-01   3.357e-01   0.000e+00
  -5.911e-01   3.028e-01   0.000e+00
  -5.473e-01   1.590e-01   0.000e+00
  -5.912e-01   1.716e-01   0.000e+00
  -5.281e-01   9.341e-02   0.000e+00
  -5.192e-01   5.239e-03   0.000e+00
  -5.483e-01   3.291e-02   0.000e+00
  -5.467e-01  -8.150e-02   0.000e+00
  -5.683e-01  -5.701e-02   0.000e+00
  -6.016e-01  -2.166e-01   0.000e+00
  -6.293e-01  -1.700e-01   0.000e+00
  -6.638e-01  -2.505e-01   0.000e+00
  -7.963e-01  -4.825e-01   0.000e+00
  -7.991e-01  -3.017e-01   0.000e+00
  -7.964e-01  -7.868e-01   0.000e+00
  -7.601e-01  -8.621e-01   0.000e+00
  -6.164e-01  -9.069e-01   0.000e+00
  -5.016e-01  -9.156e-01   0.000e+00
  -3.129e-01  -8.381e-01   0.000e+00
  -1.366e-01  -6.997e-01   0.000e+00
  -1.040e-01  -7.078e-01   0.000e+00
  -9.644e-02  -6.684e-01   0.000e+00
  -2.843e-02  -6.315e-01   0.000e+00
  -2.000e-02  -6.365e-01   0.000e+00
   1.989e-02  -6.330e-01   0.000e+00
   3.227e-03  -6.243e-01   0.000e+00
   1.551e-01  -6.403e-01   0.000e+00
   1.887e-01  -6.564e-01   0.000e+00
   3.857e-02  -6.649e-01   0.000e+00
   3.957e-01  -6.692e-01   0.000e+00
  -8.840e-01  -8.475e-01   0.000e+00
   5.390e-01  -5.733e-01   0.000e+00
   5.041e-01  -7.038e-01   0.000e+00
   5.845e-01  -7.462e-01   0.000e+00
   6.308e-01  -4.957e-01   0.000e+00
   4.513e-01  -8.904e-01   0.000e+00
   7.072e-01  -7.582e-02   0.000e+00
   6.025e-01  -1.751e-01   0.000e+00
   6.428e-01  -1.933e-01   0.000e+00
   5.937e-01  -1.142e-01   0.000e+00
   6.459e-01  -5.049e-02   0.000e+00
   7.031e-01  -3.481e-02   0.000e+00
  -4.466e-01   5.757e-01   0.000e+00
   6.556e-01   6.517e-01   0.000e+00
  -5.571e-01   3.898e-01   0.000e+00
   6.639e-01   5.853e-01   0.000e+00
  -5.584e-01   2.488e-01   0.000e+00
   3.321e-02   7.806e-01   0.000e+00
  -5.637e-01   2.440e-01   0.000e+00
  -5.573e-01   2.006e-01   0.000e+00
  -5.344e-01   8.464e-02   0.000e+00
  -5.297e-01   5.007e-02   0.000e+00
  -5.295e-01  -1.664e-02   0.000e+00
  -5.348e-01  -5.055e-02   0.000e+00
  -5.557e-01  -1.242e-01   0.000e+00
  -5.769e-01  -1.676e-01   0.000e+00
   6.695e-01  -3.139e-01   0.000e+00
  -6.590e-01  -3.358e-01   0.000e+00
  -7.722e-01  -5.990e-01   0.000e+00
   4.016e-01  -7.774e-01   0.000e+00
  -7.017e-01  -9.047e-01   0.000e+00
  -8.111e-01  -9.837e-01   0.000e+00
   7.011e-01   1.567e-01   0.000e+00
   7.289e-01   2.118e-01   0.000e+00
   7.742e-01   3.945e-01   0.000e+00
  -6.643e-01   1.046e-01   0.000e+00
   7.141e-01   5.539e-01   0.000e+00
   7.859e-01   6.507e-01   0.000e+00
   4.748e-01   6.122e-01   0.000e+00
   5.232e-01   6.862e-01   0.000e+00
   2.965e-01   5.820e-01   0.000e+00
   2.652e-01   6.234e-01   0.000e+00
   2.909e-01  -6.721e-01   0.000e+00
   3.409e-01  -6.750e-01   0.000e+00
   4.484e-01  -6.598e-01   0.000e+00
   4.938e-01  -6.366e-01   0.000e+00
   5.865e-01  -5.170e-01   0.000e+00
   6.033e-01  -4.154e-01   0.000e+00
   6.083e-01  -3.597e-01   0.000e+00
   6.005e-01  -2.694e-01   0.000e+00
   6.078e-01  -2.630e-01   0.000e+00
   6.058e-01  -2.181e-01   0.000e+00
   6.068e-01  -9.611e-02   0.000e+00
   6.140e-01  -5.804e-02   0.000e+00
   6.377e-01   2.004e-02   0.000e+00
   6.570e-01   6.211e-02   0.000e+00
   6.571e-01   6.198e-02   0.000e+00
   6.872e-01   1.508e-02   0.000e+00
   6.758e-01   1.070e-01   0.000e+00
   7.432e-01   7.355e-02   0.000e+00
   7.158e-01   1.437e-01   0.000e+00
   7.368e-01   2.044e-01   0.000e+00
   7.530e-01   2.695e-01   0.000e+00
   8.420e-01   2.875e-01   0.000e+00
   7.651e-01   3.311e-01   0.000e+00
   8.425e-01   3.399e-01   0.000e+00
   7.661e-01   3.993e-01   0.000e+00
   7.456e-01   4.707e-01   0.000e+00
   7.473e-01   5.079e-01   0.000e+00
   7.578e-01   5.662e-01   0.000e+00
   6.676e-01   5.670e-01   0.000e+00
   6.035e-01   6.052e-01   0.000e+00
   6.039e-01   6.039e-01   0.000e+00
   5.218e-01   6.894e-01   0.000e+00
   4.707e-01   6.216e-01   0.000e+00
   3.995e-01   6.232e-01   0.000e+00
   3.406e-01   6.106e-01   0.000e+00
   3.519e-01   6.224e-01   0.000e+00
   3.491e-01   5.903e-01   0.000e+00
   3.142e-01   6.444e-01   0.000e+00
   5.120e-02   5.417e-01   0.000e+00
   2.140e-01   6.045e-01   0.000e+00
   1.721e-02   5.477e-01   0.000e+00
   3.407e-01   6.793e-01   0.000e+00
  -5.295e-02   5.602e-01   0.000e+00
   2.951e-02   5.657e-01   0.000e+00
  -1.294e-01   5.787e-01   0.000e+00
   3.080e-02   6.032e-01   0.000e+00
  -2.528e-02   5.477e-01   0.000e+00
   1.770e-01   6.320e-01   0.000e+00
  -1.711e-01   5.889e-01   0.000e+00
   2.222e-01   6.498e-01   0.000e+00
  -2.149e-01   5.969e-01   0.000e+00
   2.836e-01   6.815e-01   0.000e+00
  -2.386e-01   6.516e-01   0.000e+00
  -2.467e-01   6.428e-01   0.000e+00
  -2.612e-01   6.035e-01   0.000e+00
  -3.294e-01   6.335e-01   0.000e+00
  -3.073e-01   6.031e-01   0.000e+00
  -3.228e-01   6.538e-01   0.000e+00
  -3.570e-01   5.978e-01   0.000e+00
  -4.117e-01   5.776e-01   0.000e+00
  -4.580e-01   5.510e-01   0.000e+00
  -4.861e-01   6.009e-01   0.000e+00
  -4.833e-01   5.482e-01   0.000e+00
  -5.294e-01   5.593e-01   0.000e+00
  -5.231e-01   4.818e-01   0.000e+00
  -5.514e-01   4.322e-01   0.000e+00
  -5.556e-01   4.309e-01   0.000e+00
  -6.105e-01   3.724e-01   0.000e+00
  -5.670e-01   3.361e-01   0.000e+00
  -5.706e-01   2.858e-01   0.000e+00
  -5.657e-01   2.882e-01   0.000e+00
  -5.974e-01   2.266e-01   0.000e+00
  -5.545e-01   2.032e-01   0.000e+00
  -5.488e-01   1.578e-01   0.000e+00
  -5.404e-01   1.192e-01   0.000e+00
  -5.653e-01   1.304e-01   0.000e+00
  -5.390e-01   1.205e-01   0.000e+00
  -5.584e-01   7.157e-02   0.000e+00
  -5.230e-01   5.814e-02   0.000e+00
  -5.201e-01   2.555e-02   0.000e+00
  -5.272e-01   1.657e-02   0.000e+00
  -5.481e-01  -7.689e-04   0.000e+00
  -5.222e-01  -2.646e-02   0.000e+00
  -5.290e-01  -5.916e-02   0.000e+00
  -5.420e-01  -8.585e-02   0.000e+00
  -5.847e-01  -7.325e-02   0.000e+00
  -5.654e-01  -1.157e-01   0.000e+00
  -5.869e-01  -1.583e-01   0.000e+00
  -6.129e-01  -2.064e-01   0.000e+00
  -6.720e-01  -2.183e-01   0.000e+00
  -6.257e-01  -2.707e-01   0.000e+00
  -7.522e-01  -2.222e-01   0.000e+00
  -7.031e-01  -3.128e-01   0.000e+00
  -7.370e-01  -3.966e-01   0.000e+00
  -7.386e-01  -5.020e-01   0.000e+00
  -9.208e-01  -4.683e-01   0.000e+00
  -8.129e-01  -5.863e-01   0.000e+00
  -8.051e-01  -6.971e-01   0.000e+00
  -7.877e-01  -7.877e-01   0.000e+00
  -8.312e-01  -8.424e-01   0.000e+00
  -1.472e-01  -7.403e-01   0.000e+00
   6.000e-02  -6.347e-01   0.000e+00
   1.014e-01  -6.403e-01   0.000e+00
  -5.934e-02  -7.194e-01   0.000e+00
   1.943e-02  -6.555e-01   0.000e+00
   1.313e-01  -6.772e-01   0.000e+00
   1.448e-01  -6.477e-01   0.000e+00
   2.037e-01  -6.840e-01   0.000e+00
   1.902e-01  -6.546e-01   0.000e+00
   1.913e-01  -7.088e-01   0.000e+00
   2.402e-01  -6.625e-01   0.000e+00
   2.967e-01  -6.648e-01   0.000e+00
   3.423e-01  -6.719e-01   0.000e+00
   3.559e-01  -7.299e-01   0.000e+00
   3.972e-01  -6.657e-01   0.000e+00
   4.577e-01  -6.398e-01   0.000e+00
   5.089e-01  -6.057e-01   0.000e+00
   5.436e-01  -6.662e-01   0.000e+00
   5.315e-01  -6.029e-01   0.000e+00
   5.992e-01  -5.863e-01   0.000e+00
   5.750e-01  -5.201e-01   0.000e+00
   6.031e-01  -4.630e-01   0.000e+00
   5.986e-01  -4.643e-01   0.000e+00
   6.666e-01  -3.881e-01   0.000e+00
   6.118e-01  -3.582e-01   0.000e+00
   6.134e-01  -3.062e-01   0.000e+00
   6.071e-01  -3.093e-01   0.000e+00
   6.411e-01  -2.485e-01   0.000e+00
   5.993e-01  -2.240e-01   0.000e+00
   5.983e-01  -1.788e-01   0.000e+00
   5.965e-01  -1.396e-01   0.000e+00
   6.281e-01  -1.539e-01   0.000e+00
   6.019e-01  -1.345e-01   0.000e+00
   6.286e-01  -1.028e-01   0.000e+00
   5.984e-01  -7.664e-02   0.000e+00
   6.068e-01  -4.008e-02   0.000e+00
   6.231e-01  -1.958e-02   0.000e+00
   6.602e-01  -2.424e-02   0.000e+00
  -8.338e-01  -4.329e-01   0.000e+00
  -8.855e-01  -6.454e-01   0.000e+00
  -2.128e-01  -3.849e-01   0.000e+00
  -1.001e+00  -1.007e+00   0.000e+00
  -2.713e-01  -7.535e-01   0.000e+00
  -1.531e-01  -6.851e-01   0.000e+00
  -3.100e-02  -6.701e-01   0.000e+00
   2.631e-01  -7.211e-01   0.000e+00
   4.349e-01  -7.196e-01   0.000e+00
   1.117e+00   5.067e-01   0.000e+00
   7.596e-01   1.556e-01   0.000e+00
   8.517e-01   4.416e-01   0.000e+00
  -8.567e-01   2.309e-01   0.000e+00
   2.647e-01   7.132e-01   0.000e+00
   6.565e-01   6.414e-01   0.000e+00
   1.585e-01   5.539e-01   0.000e+00
   1.218e-01   5.450e-01   0.000e+00
   1.364e-01   6.206e-01   0.000e+00
  -2.739e-02   5.867e-01   0.000e+00
  -5.846e-02   5.565e-01   0.000e+00
  -9.337e-02   5.667e-01   0.000e+00
  -3.909e-01   6.489e-01   0.000e+00
  -5.142e-01   6.444e-01   0.000e+00
  -5.829e-01   5.366e-01   0.000e+00
  -6.174e-01   3.692e-01   0.000e+00
  -6.042e-01   2.204e-01   0.000e+00
  -6.786e-01   4.194e-01   0.000e+00
  -6.414e-01   1.804e-01   0.000e+00
  -7.027e-01   2.622e-01   0.000e+00
  -5.640e-01   6.474e-02   0.000e+00
  -6.049e-01  -1.856e-02   0.000e+00
  -5.608e-01  -2.891e-02   0.000e+00
  -7.831e-01  -7.807e-02   0.000e+00
  -5.951e-01  -1.241e-01   0.000e+00
  -8.396e-01  -1.786e-01   0.000e+00
  -7.422e-01  -3.346e-01   0.000e+00
  -9.710e-01  -2.874e-01   0.000e+00
  -5.413e-01  -1.035e+00   0.000e+00
  -5.216e-01  -8.820e-01   0.000e+00
  -3.995e-01  -8.852e-01   0.000e+00
  -1.588e-01  -8.237e-01   0.000e+00
  -4.290e-01  -8.419e-01   0.000e+00
  -1.982e-01  -7.829e-01   0.000e+00
  -2.419e-01  -7.869e-01   0.000e+00
  -1.841e-01  -7.396e-01   0.000e+00
  -2.079e-01  -7.157e-01   0.000e+00
  -3.608e-02  -7.374e-01   0.000e+00
  -6.099e-02  -6.459e-01   0.000e+00
   3.517e-03  -6.641e-01   0.000e+00
  -6.105e-02  -6.458e-01   0.000e+00
  -2.956e-02  -6.711e-01   0.000e+00
   6.350e-01  -5.759e-01   0.000e+00
   3.963e-01  -7.878e-01   0.000e+00
   6.598e-01  -3.910e-01   0.000e+00
   7.705e-01  -3.522e-01   0.000e+00
   6.491e-01  -2.411e-01   0.000e+00
   6.650e-01  -1.457e-01   0.000e+00
   6.445e-01  -8.450e-02   0.000e+00
   7.493e-01   2.490e-02   0.000e+00
   5.843e-01   8.332e-01   0.000e+00
   7.411e-01   6.321e-01   0.000e+00
   7.052e-01  -2.586e-01   0.000e+00
   6.329e-01  -3.226e-01   0.000e+00
  -7.219e-01  -8.650e-01   0.000e+00
  -6.131e-01  -9.129e-01   0.000e+00
   6.795e-01   2.401e-02   0.000e+00
   7.161e-01   1.991e-02   0.000e+00
   7.049e-01   9.892e-02   0.000e+00
   7.983e-01   6.718e-02   0.000e+00
   7.822e-01   1.367e-01   0.000e+00
   8.150e-01   2.121e-01   0.000e+00
   8.133e-01   3.520e-01   0.000e+00
   9.055e-01   4.282e-01   0.000e+00
   8.080e-01   4.710e-01   0.000e+00
   7.689e-01   5.652e-01   0.000e+00
   5.945e-01   6.921e-01   0.000e+00
   3.434e-01   7.635e-01   0.000e+00
   4.199e-01   6.979e-01   0.000e+00
   1.700e-01   5.920e-01   0.000e+00
   1.301e-01   5.804e-01   0.000e+00
   2.616e-01   6.277e-01   0.000e+00
   6.011e-02   5.630e-01   0.000e+00
   2.066e-01   6.134e-01   0.000e+00
   4.494e-02   5.746e-01   0.000e+00
   7.086e-03   5.787e-01   0.000e+00
  -6.665e-02   5.946e-01   0.000e+00
  -1.409e-01   6.211e-01   0.000e+00
  -2.341e-03   5.732e-01   0.000e+00
  -2.617e-03   6.114e-01   0.000e+00
  -1.115e-01   6.506e-01   0.000e+00
   1.057e-01   6.338e-01   0.000e+00
  -1.717e-01   5.883e-01   0.000e+00
  -2.169e-01   5.948e-01   0.000e+00
  -1.873e-01   6.315e-01   0.000e+00
  -1.171e-01   6.972e-01   0.000e+00
  -2.813e-01   6.563e-01   0.000e+00
  -3.737e-01   6.982e-01   0.000e+00
  -3.977e-01   6.347e-01   0.000e+00
  -4.667e-01   5.992e-01   0.000e+00
  -5.293e-01   5.572e-01   0.000e+00
  -6.694e-01   5.290e-01   0.000e+00
  -5.993e-01   4.650e-01   0.000e+00
  -6.169e-01   4.194e-01   0.000e+00
  -6.232e-01   2.952e-01   0.000e+00
  -6.118e-01   2.623e-01   0.000e+00
  -5.909e-01   1.719e-01   0.000e+00
  -5.786e-01   1.212e-01   0.000e+00
  -5.726e-01   9.441e-02   0.000e+00
  -5.823e-01   3.801e-02   0.000e+00
  -5.507e-01   3.092e-02   0.000e+00
  -5.487e-01  -2.285e-04   0.000e+00
  -5.540e-01  -3.823e-02   0.000e+00
  -5.618e-01  -8.747e-02   0.000e+00
  -6.122e-01  -1.093e-01   0.000e+00
  -6.458e-01  -1.547e-01   0.000e+00
  -6.573e-01  -2.455e-01   0.000e+00
  -6.217e-01  -6.459e-02   0.000e+00
  -7.974e-01  -4.836e-01   0.000e+00
  -1.105e+00  -4.575e-01   0.000e+00
  -9.148e-01  -6.362e-01   0.000e+00
  -3.694e-01  -2.792e-01   0.000e+00
  -8.438e-01  -1.166e+00   0.000e+00
   7.150e-02  -6.272e-01   0.000e+00
   1.122e-01  -6.329e-01   0.000e+00
   7.683e-02  -6.717e-01   0.000e+00
   2.073e-02  -6.900e-01   0.000e+00
   1.199e-01  -6.851e-01   0.000e+00
   2.594e-01  -9.582e-01   0.000e+00
   1.581e-01  -6.949e-01   0.000e+00
   2.968e-01  -7.892e-01   0.000e+00
   2.707e-01  -7.114e-01   0.000e+00
   3.626e-01  -7.011e-01   0.000e+00
   4.380e-01  -7.112e-01   0.000e+00
   5.194e-01  -6.657e-01   0.000e+00
   5.972e-01  -6.167e-01   0.000e+00
   6.981e-01  -5.605e-01   0.000e+00
   6.554e-01  -4.926e-01   0.000e+00
   6.708e-01  -4.490e-01   0.000e+00
   6.542e-01  -2.830e-01   0.000e+00
   6.840e-01  -2.073e-01   0.000e+00
   6.378e-01  -1.978e-01   0.000e+00
   6.324e-01  -1.509e-01   0.000e+00
   6.362e-01  -1.153e-01   0.000e+00
   6.604e-01  -8.098e-02   0.000e+00
   6.351e-01  -5.879e-02   0.000e+00
   6.467e-01  -1.229e-02   0.000e+00
  -5.992e-01  -1.358e-02   0.000e+00
  -5.827e-01   3.756e-02   0.000e+00
   8.348e-01  -4.360e-01   0.000e+00
  -5.898e-01  -3.902e-02   0.000e+00
  -6.516e-01   2.457e-01   0.000e+00
   8.245e-01   1.493e-01   0.000e+00
  -6.647e-02   6.373e-01   0.000e+00
  -1.012e-01   6.080e-01   0.000e+00
  -4.566e-01  -1.111e+00   0.000e+00
  -1.165e-01  -7.685e-01   0.000e+00
  -7.371e-01  -1.317e-01   0.000e+00
  -1.054e+00  -7.412e-01   0.000e+00
  -6.816e-01  -4.508e-02   0.000e+00
   4.847e-01  -7.740e-01   0.000e+00
   7.255e-01  -5.514e-01   0.000e+00
   7.176e-01  -4.268e-01   0.000e+00
   2.138e-01  -7.596e-01   0.000e+00
   3.020e-01  -7.816e-01   0.000e+00
  -5.586e-01  -1.005e+00   0.000e+00
  -4.382e-01  -9.556e-01   0.000e+00
  -6.818e-01   4.182e-01   0.000e+00
  -6.605e-01   3.240e-01   0.000e+00
   9.248e-01   5.180e-01   0.000e+00
   1.993e-01   7.594e-01   0.000e+00
   1.989e-02   6.322e-01   0.000e+00
   2.064e-01   6.737e-01   0.000e+00
   1.936e-01   7.503e-01   0.000e+00
   3.650e-01   7.077e-01   0.000e+00
   2.874e-01   7.491e-01   0.000e+00
   4.620e-01   7.479e-01   0.000e+00
  -1.835e-01   6.575e-01   0.000e+00
  -3.627e-01   7.160e-01   0.000e+00
  -2.157e-01  -8.880e-01   0.000e+00
  -8.913e-02  -7.515e-01   0.000e+00
   8.904e-02  -7.094e-01   0.000e+00
   2.060e-01  -7.700e-01   0.000e+00
  -6.425e-01  -1.182e+00   0.000e+00
  -4.053e-01  -3.738e-01   0.000e+00
  -4.629e-01  -1.286e+00   0.000e+00
  -6.605e-02  -6.845e-01   0.000e+00
  -2.085e-02  -7.074e-01   0.000e+00
  -6.353e-01   1.853e-01   0.000e+00
  -6.698e-01   1.957e-01   0.000e+00
   3.452e-01   8.837e-01   0.000e+00
   4.464e-01   7.970e-01   0.000e+00
  -4.383e-01   7.026e-01   0.000e+00
  -8.213e-01   3.372e-01   0.000e+00
  -6.544e-01   5.302e-01   0.000e+00
  -7.616e-01   4.982e-01   0.000e+00
  -6.234e-01   1.311e-01   0.000e+00
  -6.790e-01   1.427e-01   0.000e+00
  -6.964e-01   3.124e-01   0.000e+00
  -6.647e-01   2.381e-01   0.000e+00
  -5.707e-01   1.414e-02   0.000e+00
  -5.809e-01  -4.724e-03   0.000e+00
  -5.910e-01  -3.754e-02   0.000e+00
  -6.401e-01  -1.159e-01   0.000e+00
  -9.952e-01  -1.352e-01   0.000e+00
  -7.004e-01  -1.006e-01   0.000e+00
  -8.882e-01  -3.349e-01   0.000e+00
  -8.908e-01  -7.617e-02   0.000e+00
  -7.104e-01  -9.898e-01   0.000e+00
  -6.931e-01  -1.024e+00   0.000e+00
  -3.396e-01  -8.943e-01   0.000e+00
  -3.738e-01  -4.075e-01   0.000e+00
  -2.385e-01  -1.301e+00   0.000e+00
  -2.608e-01  -8.351e-01   0.000e+00
  -5.399e-02  -7.813e-01   0.000e+00
  -8.317e-02  -7.248e-01   0.000e+00
  -5.474e-02  -6.929e-01   0.000e+00
  -6.029e-03  -6.588e-01   0.000e+00
  -5.865e-03  -6.894e-01   0.000e+00
   3.608e-01  -8.695e-01   0.000e+00
   1.291e-01  -8.234e-01   0.000e+00
   6.796e-01  -2.108e-01   0.000e+00
   7.749e-01  -3.958e-02   0.000e+00
   6.964e-01  -9.090e-02   0.000e+00
   6.675e-01  -5.144e-02   0.000e+00
   8.659e-01   7.690e-01   0.000e+00
   7.438e-01   7.448e-01   0.000e+00
   7.732e-01  -4.184e-01   0.000e+00
   7.005e-01  -3.382e-01   0.000e+00
   6.705e-01  -1.108e-01   0.000e+00
   6.742e-01  -6.855e-02   0.000e+00
   7.862e-01   8.133e-02   0.000e+00
   8.755e-01   7.158e-02   0.000e+00
   8.736e-01   2.366e-01   0.000e+00
   9.557e-01   3.890e-01   0.000e+00
   5.913e-01   7.650e-01   0.000e+00
   2.552e-01   8.155e-01   0.000e+00
   1.664e-01   5.958e-01   0.000e+00
   1.279e-01   5.826e-01   0.000e+00
   9.296e-02   5.717e-01   0.000e+00
   9.762e-02   6.095e-01   0.000e+00
   9.105e-02   5.737e-01   0.000e+00
   4.531e-02   5.929e-01   0.000e+00
  -3.414e-02   5.827e-01   0.000e+00
  -6.325e-02   5.969e-01   0.000e+00
  -4.435e-02   6.174e-01   0.000e+00
   1.966e-02   5.975e-01   0.000e+00
  -1.504e-01   6.741e-01   0.000e+00
  -4.271e-01   1.001e+00   0.000e+00
  -1.420e-01   6.202e-01   0.000e+00
  -1.752e-01   6.473e-01   0.000e+00
  -2.785e-01   7.086e-01   0.000e+00
  -4.256e-01   8.082e-01   0.000e+00
  -5.753e-01   6.803e-01   0.000e+00
  -5.971e-01   6.000e-01   0.000e+00
  -5.962e-01   7.944e-02   0.000e+00
  -6.114e-01   4.419e-02   0.000e+00
  -6.996e-01  -1.024e-01   0.000e+00
  -7.262e-01  -2.009e-01   0.000e+00
  -9.564e-01  -4.985e-01   0.000e+00
  -3.463e-01  -4.125e-01   0.000e+00
  -1.183e+00  -8.160e-01   0.000e+00
  -3.997e-01  -1.014e+00   0.000e+00
  -2.930e-01  -9.567e-01   0.000e+00
   4.859e-02  -6.588e-01   0.000e+00
   8.213e-02  -6.679e-01   0.000e+00
   5.589e-02  -7.150e-01   0.000e+00
   5.009e-02  -6.958e-01   0.000e+00
   1.343e-01  -7.401e-01   0.000e+00
   3.494e-01  -8.863e-01   0.000e+00
   5.848e-01  -7.394e-01   0.000e+00
   6.727e-01  -6.609e-01   0.000e+00
   6.922e-01  -2.663e-01   0.000e+00
   7.078e-01  -2.202e-01   0.000e+00
   6.752e-01  -1.606e-01   0.000e+00
   6.692e-01  -1.117e-01   0.000e+00
  -6.196e-01  -3.848e-02   0.000e+00
  -6.472e-01  -6.862e-02   0.000e+00
   6.426e-01   9.471e-01   0.000e+00
   2.205e-01   6.997e-01   0.000e+00
   5.404e-01  -8.185e-01   0.000e+00
   7.862e-01  -6.468e-01   0.000e+00
   6.883e-01  -2.060e-02   0.000e+00
   7.416e-01  -5.655e-02   0.000e+00
   8.429e-01   5.697e-01   0.000e+00
   8.398e-01   6.438e-01   0.000e+00
   1.676e-01   6.434e-01   0.000e+00
   1.012e-01   6.057e-01   0.000e+00
  -2.889e-01  -1.186e+00   0.000e+00
  -1.243e-01  -7.947e-01   0.000e+00
  -2.394e-01  -3.081e-01   0.000e+00
  -1.097e+00  -7.317e-01   0.000e+00
  -3.294e-01  -3.726e-01   0.000e+00
  -9.074e-01  -1.017e+00   0.000e+00
  -4.602e-01   6.639e-01   0.000e+00
  -5.105e-01   6.632e-01   0.000e+00
  -8.155e-01   1.689e-01   0.000e+00
  -7.262e-01   3.413e-01   0.000e+00
   7.082e-01  -1.452e-01   0.000e+00
  -5.936e-01   5.473e-03   0.000e+00
  -8.380e-01  -1.812e-01   0.000e+00
  -1.220e+00  -2.490e-01   0.000e+00
  -3.288e-02  -6.984e-01   0.000e+00
   1.728e-04  -7.136e-01   0.000e+00
   7.571e-01  -7.183e-03   0.000e+00
   8.317e-01  -5.086e-03   0.000e+00
   6.977e-01   7.418e-01   0.000e+00
   3.762e-01   8.055e-01   0.000e+00
   7.380e-01  -2.050e-01   0.000e+00
   7.378e-01  -3.258e-01   0.000e+00
   9.199e-01   2.872e-01   0.000e+00
   9.881e-01   6.254e-01   0.000e+00
  -5.594e-02   6.839e-01   0.000e+00
  -1.060e-01   6.557e-01   0.000e+00
   1.340e-01   6.624e-01   0.000e+00
  -9.988e-03   6.481e-01   0.000e+00
  -6.010e-01   6.228e-01   0.000e+00
  -7.797e-01   4.906e-01   0.000e+00
  -6.115e-01   6.831e-02   0.000e+00
  -6.016e-01   1.482e-02   0.000e+00
  -3.231e-01  -1.015e+00   0.000e+00
  -6.142e-03  -9.821e-01   0.000e+00
   6.718e-01  -6.609e-01   0.000e+00
   7.999e-01  -5.513e-01   0.000e+00
   7.046e-01  -3.431e-02   0.000e+00
   6.921e-01  -7.162e-02   0.000e+00
  -3.978e-02   6.596e-01   0.000e+00
  -7.241e-02   6.323e-01   0.000e+00
  -2.322e-01  -9.268e-01   0.000e+00
  -2.687e-02  -1.027e+00   0.000e+00
  -6.598e-01  -9.594e-02   0.000e+00
  -6.794e-01  -1.643e-01   0.000e+00
  -5.092e-01   8.787e-01   0.000e+00
   1.554e-01   6.993e-01   0.000e+00
   4.796e-01   9.414e-01   0.000e+00
   5.018e-01   8.566e-01   0.000e+00
  -2.028e-01   7.028e-01   0.000e+00
  -2.128e-01   7.930e-01   0.000e+00
  -7.584e-02  -8.418e-01   0.000e+00
  -2.286e-02  -7.198e-01   0.000e+00
   3.674e-02  -7.375e-01   0.000e+00
   8.349e-02  -7.144e-01   0.000e+00
  -2.851e-01  -2.861e-01   0.000e+00
  -6.426e-01  -1.182e+00   0.000e+00
  -4.048e-01  -1.189e+00   0.000e+00
  -2.500e-01  -1.115e+00   0.000e+00
  -1.621e-01  -1.013e+00   0.000e+00
  -6.251e-03  -6.891e-01   0.000e+00
  -9.127e-03  -7.032e-01   0.000e+00
   3.735e-01   2.981e-01   0.000e+00
  -5.840e-01   7.411e-01   0.000e+00
  -6.163e-01   1.415e-01   0.000e+00
  -6.287e-01   7.543e-02   0.000e+00
  -6.575e-01   1.160e-01   0.000e+00
  -7.608e-01   2.012e-01   0.000e+00
  -1.160e+00  -5.047e-01   0.000e+00
  -6.274e-01  -2.743e-02   0.000e+00
  -1.090e-01  -9.196e-01   0.000e+00
  -3.699e-01  -4.001e-01   0.000e+00
  -1.693e-01  -8.527e-01   0.000e+00
  -3.710e-01  -4.073e-01   0.000e+00
   5.288e-02  -1.278e+00   0.000e+00
   4.562e-03  -6.828e-01   0.000e+00
   1.972e-02  -7.084e-01   0.000e+00
   2.206e-01  -8.657e-01   0.000e+00
  -6.122e-01   2.523e-02   0.000e+00
   7.216e-01  -4.805e-01   0.000e+00
   8.007e-01  -4.480e-01   0.000e+00
   8.602e-01   1.073e-01   0.000e+00
   7.729e-01  -9.951e-02   0.000e+00
   8.753e-01   1.166e-01   0.000e+00
   1.056e+00   1.503e-01   0.000e+00
   5.524e-02   6.660e-01   0.000e+00
   9.872e-01   6.228e-01   0.000e+00
   6.984e-02   5.973e-01   0.000e+00
   5.349e-02   6.178e-01   0.000e+00
   6.582e-02   6.011e-01   0.000e+00
   4.219e-02   6.199e-01   0.000e+00
  -1.186e-02   6.067e-01   0.000e+00
  -3.553e-02   6.218e-01   0.000e+00
  -2.660e-01   7.231e-01   0.000e+00
  -3.301e-01   7.971e-01   0.000e+00
  -4.978e-01   7.528e-01   0.000e+00
  -6.955e-01   6.274e-01   0.000e+00
  -3.689e-01  -4.086e-01   0.000e+00
  -3.818e-01  -4.057e-01   0.000e+00
  -4.606e-01  -1.290e+00   0.000e+00
   3.248e-02  -6.842e-01   0.000e+00
   5.127e-02  -6.949e-01   0.000e+00
   1.391e-01  -7.354e-01   0.000e+00
   2.350e-01  -8.462e-01   0.000e+00
   3.300e-02  -7.577e-01   0.000e+00
   1.048e-01  -9.350e-01   0.000e+00
   4.851e-01  -7.725e-01   0.000e+00
   6.943e-01  -7.678e-01   0.000e+00
   7.164e-01  -1.781e-01   0.000e+00
   7.179e-01  -1.243e-01   0.000e+00
   6.649e-01  -1.754e-01   0.000e+00
   6.953e-01  -1.199e-01   0.000e+00
   1.576e-01   8.437e-01   0.000e+00
   1.549e-01   6.986e-01   0.000e+00
   7.974e-01  -2.043e-01   0.000e+00
  -8.144e-01   3.279e-01   0.000e+00
   1.124e+00   1.810e-01   0.000e+00
   1.083e+00   3.306e-01   0.000e+00
  -7.546e-01   2.479e-01   0.000e+00
  -6.994e-01   1.806e-01   0.000e+00
  -6.068e-01  -8.296e-03   0.000e+00
  -6.280e-01  -5.198e-03   0.000e+00
   2.885e-01  -1.124e+00   0.000e+00
  -6.393e-01  -2.873e-02   0.000e+00
   8.304e-01  -5.337e-01   0.000e+00
   8.281e-01  -3.361e-01   0.000e+00
  -6.537e-02   7.111e-01   0.000e+00
  -1.671e-01   7.161e-01   0.000e+00
   4.303e-01  -1.019e+00   0.000e+00
   6.589e-01  -9.969e-01   0.000e+00
   7.880e-01  -2.628e-01   0.000e+00
   7.777e-01  -2.530e-01   0.000e+00
   2.226e-01   9.402e-01   0.000e+00
   2.711e-01   8.388e-01   0.000e+00
  -1.105e-01  -9.233e-01   0.000e+00
  -7.601e-02  -8.423e-01   0.000e+00
  -7.706e-01   3.938e-01   0.000e+00
  -7.407e-01   2.318e-01   0.000e+00
  -7.391e-01   6.138e-01   0.000e+00
  -8.877e-01   4.596e-01   0.000e+00
  -9.073e-01  -1.989e-01   0.000e+00
  -3.583e-01  -4.153e-01   0.000e+00
  -1.250e+00  -1.236e-01   0.000e+00
  -6.681e-01  -4.297e-02   0.000e+00
  -7.767e-01  -1.263e-01   0.000e+00
  -9.937e-01   4.902e-02   0.000e+00
  -7.374e-01  -4.900e-02   0.000e+00
  -4.174e-03  -7.750e-01   0.000e+00
  -3.820e-02  -7.485e-01   0.000e+00
   7.119e-02  -7.755e-01   0.000e+00
   1.515e-01  -7.975e-01   0.000e+00
   6.469e-01  -5.776e-02   0.000e+00
   7.492e-01  -1.015e-02   0.000e+00
  -6.144e-01  -6.438e-03   0.000e+00
   6.951e-01  -1.201e-01   0.000e+00
   8.021e-01   9.247e-01   0.000e+00
   8.932e-01   7.718e-01   0.000e+00
   1.392e-01   6.185e-01   0.000e+00
   8.952e-02   6.571e-01   0.000e+00
  -4.754e-01   7.468e-01   0.000e+00
  -6.931e-01   6.642e-01   0.000e+00
  -3.523e-01  -3.899e-01   0.000e+00
  -1.270e+00  -4.849e-01   0.000e+00
  -3.675e-01  -4.140e-01   0.000e+00
   3.320e-01   1.035e+00   0.000e+00
   4.008e-01   2.868e-01   0.000e+00
   1.181e+00   2.816e-01   0.000e+00
   6.834e-01  -8.196e-01   0.000e+00
   7.350e-01  -7.623e-01   0.000e+00
   7.062e-01  -6.191e-02   0.000e+00
   7.223e-01  -6.544e-02   0.000e+00
  -3.543e-01  -3.711e-01   0.000e+00
  -2.239e-01  -1.274e+00   0.000e+00
  -5.580e-02  -1.184e+00   0.000e+00
  -6.012e-01   1.526e-02   0.000e+00
  -6.093e-01  -9.959e-04   0.000e+00
  -1.015e+00  -3.138e-01   0.000e+00
  -1.106e+00  -1.205e-01   0.000e+00
  -5.825e-04  -7.338e-01   0.000e+00
   5.505e-03  -7.091e-01   0.000e+00
   8.125e-01   2.127e-02   0.000e+00
   9.543e-01   5.982e-02   0.000e+00
   7.408e-01  -2.800e-01   0.000e+00
   7.939e-01  -2.252e-01   0.000e+00
   1.083e+00   3.307e-01   0.000e+00
   3.106e-01   2.659e-01   0.000e+00
   9.673e-01   9.165e-01   0.000e+00
   8.915e-03   6.619e-01   0.000e+00
  -7.436e-02   6.565e-01   0.000e+00
   1.431e-02   6.295e-01   0.000e+00
  -2.138e-02   6.433e-01   0.000e+00
  -6.109e-01  -9.922e-03   0.000e+00
  -6.321e-01   9.075e-03   0.000e+00
   3.249e-02  -7.527e-01   0.000e+00
  -5.565e-02  -7.877e-01   0.000e+00
   7.228e-01  -8.561e-02   0.000e+00
   6.884e-01  -9.844e-02   0.000e+00
  -1.701e-01  -1.030e+00   0.000e+00
   4.095e-03  -7.028e-01   0.000e+00
   3.804e-02   6.350e-01   0.000e+00
   4.762e-02   7.240e-01   0.000e+00
   6.557e-01   8.840e-01   0.000e+00
   3.804e-01   9.292e-01   0.000e+00
  -1.721e-01   7.212e-01   0.000e+00
  -3.200e-01   8.108e-01   0.000e+00
   2.528e-02  -7.151e-01   0.000e+00
   4.099e-02  -7.537e-01   0.000e+00
  -8.837e-04  -7.360e-01   0.000e+00
   3.910e-04  -7.116e-01   0.000e+00
  -6.477e-01   5.872e-02   0.000e+00
  -6.168e-01   3.795e-02   0.000e+00
  -9.862e-03  -9.170e-01   0.000e+00
  -7.495e-03  -8.335e-01   0.000e+00
   1.064e-02  -7.019e-01   0.000e+00
   3.672e-02  -8.553e-01   0.000e+00
   4.257e-01  -1.028e+00   0.000e+00
   2.286e-01  -1.005e+00   0.000e+00
   9.377e-01  -7.581e-02   0.000e+00
   9.702e-01   6.823e-02   0.000e+00
   5.396e-01   9.995e-01   0.000e+00
   1.132e-01   7.438e-01   0.000e+00
   7.619e-02   6.227e-01   0.000e+00
  -1.855e-02   6.851e-01   0.000e+00
   4.781e-02   6.230e-01   0.000e+00
   1.965e-02   6.649e-01   0.000e+00
  -2.467e-01   8.948e-01   0.000e+00
  -2.249e-01   7.767e-01   0.000e+00
  -8.769e-01   5.900e-01   0.000e+00
  -6.351e-01   7.614e-01   0.000e+00
  -3.729e-01  -4.130e-01   0.000e+00
  -3.746e-01  -4.069e-01   0.000e+00
  -3.759e-01  -4.055e-01   0.000e+00
  -7.288e-01  -1.295e+00   0.000e+00
  -3.746e-01  -4.064e-01   0.000e+00
   9.263e-02  -7.533e-01   0.000e+00
   1.484e-01  -8.802e-01   0.000e+00
   5.377e-01  -8.758e-01   0.000e+00
   6.748e-01  -9.459e-01   0.000e+00
   7.629e-01  -1.479e-01   0.000e+00
   7.011e-01  -1.571e-01   0.000e+00
   3.420e-01   2.242e-01   0.000e+00
   1.162e+00   6.576e-01   0.000e+00
  -8.962e-01   4.550e-01   0.000e+00
   1.052e-01   7.007e-01   0.000e+00
   1.280e-01   6.552e-01   0.000e+00
  -3.637e-01  -4.011e-01   0.000e+00
  -1.155e+00  -3.710e-01   0.000e+00
  -6.629e-01   1.591e-05   0.000e+00
  -3.803e-01  -4.070e-01   0.000e+00
   1.094e-01  -7.927e-01   0.000e+00
  -3.783e-01  -4.203e-01   0.000e+00
   1.888e-01  -1.033e+00   0.000e+00
  -3.449e-02  -1.146e+00   0.000e+00
   7.906e-01  -6.460e-01   0.000e+00
   9.469e-01  -6.280e-01   0.000e+00
   1.308e-03   7.810e-01   0.000e+00
   1.239e-01   7.607e-01   0.000e+00
  -7.331e-01   1.156e-01   0.000e+00
  -7.241e-01   1.308e-01   0.000e+00
  -3.341e-01  -3.784e-01   0.000e+00
  -1.089e+00   1.216e-01   0.000e+00
  -3.686e-01  -4.083e-01   0.000e+00
   6.448e-03  -8.773e-01   0.000e+00
   1.421e-01  -8.822e-01   0.000e+00
   5.437e-03  -7.088e-01   0.000e+00
   6.212e-03  -7.876e-01   0.000e+00
   8.825e-01  -2.331e-01   0.000e+00
   8.944e-01  -7.399e-01   0.000e+00
   7.924e-02   9.681e-01   0.000e+00
   1.493e-01   8.311e-01   0.000e+00
   3.194e-04  -8.097e-01   0.000e+00
   4.923e-02  -7.565e-01   0.000e+00
   3.746e-02  -1.110e+00   0.000e+00
   6.276e-02  -7.302e-01   0.000e+00
   7.081e-01  -1.008e-01   0.000e+00
   2.812e-01  -3.520e-01   0.000e+00
  -6.477e-01   5.871e-02   0.000e+00
  -1.091e+00   1.815e-03   0.000e+00
   1.250e+00   4.224e-01   0.000e+00
  -6.392e-01  -1.317e-02   0.000e+00
  -6.194e-01  -1.783e-02   0.000e+00
  -6.475e-01   2.932e-03   0.000e+00
   2.519e-01  -3.383e-01   0.000e+00
   9.994e-01  -8.751e-01   0.000e+00
  -7.129e-01   5.683e-03   0.000e+00
  -1.158e-01   7.637e-01   0.000e+00
  -3.865e-01   9.045e-01   0.000e+00
  -1.016e-01   7.170e-01   0.000e+00
  -2.575e-01   8.838e-01   0.000e+00
   8.244e-01  -9.225e-01   0.000e+00
   8.460e-01  -7.403e-01   0.000e+00
  -9.026e-01   3.031e-01   0.000e+00
  -8.341e-01   1.386e-01   0.000e+00
  -3.704e-01  -3.890e-01   0.000e+00
  -1.077e+00  -1.610e-01   0.000e+00
  -6.190e-01   1.307e-03   0.000e+00
  -8.515e-01  -5.613e-02   0.000e+00
  -7.292e-01   2.148e-03   0.000e+00
  -8.505e-01   3.356e-03   0.000e+00
  -6.760e-01  -1.690e-02   0.000e+00
  -6.118e-01   9.939e-04   0.000e+00
   2.712e-01   2.029e-01   0.000e+00
   5.144e-01   1.152e+00   0.000e+00
   2.393e-01   9.653e-01   0.000e+00
   1.226e+00   1.118e-01   0.000e+00
   3.721e-01   2.776e-01   0.000e+00
   1.166e+00   6.631e-01   0.000e+00
   7.097e-01  -9.801e-02   0.000e+00
   8.355e-01  -4.661e-02   0.000e+00
  -6.140e-01  -9.487e-03   0.000e+00
  -6.101e-01   1.850e-02   0.000e+00
  -3.257e-03  -7.694e-01   0.000e+00
   2.271e-02  -6.991e-01   0.000e+00
   1.807e-02  -7.248e-01   0.000e+00
  -4.185e-03  -7.149e-01   0.000e+00
   8.331e-01  -4.786e-03   0.000e+00
   3.726e-01   2.785e-01   0.000e+00
   1.217e+00  -1.149e-01   0.000e+00
   7.498e-01  -1.626e-01   0.000e+00
   2.733e-01  -3.341e-01   0.000e+00
   8.789e-01  -8.988e-01   0.000e+00
   3.558e-01   1.666e-01   0.000e+00
   7.613e-01   1.046e+00   0.000e+00
   3.555e-01   2.840e-01   0.000e+00
   7.611e-01   1.092e+00   0.000e+00
   5.930e-02   6.339e-01   0.000e+00
   3.303e-02   6.495e-01   0.000e+00
  -7.001e-01   3.712e-02   0.000e+00
  -6.527e-01   3.870e-02   0.000e+00
   5.154e-02  -8.762e-01   0.000e+00
   3.828e-02  -8.029e-01   0.000e+00
   7.088e-01  -9.995e-02   0.000e+00
   7.079e-01  -9.252e-02   0.000e+00
   1.060e-01  -1.151e+00   0.000e+00
   8.532e-02  -9.747e-01   0.000e+00
  -1.868e-03  -7.383e-01   0.000e+00
  -3.146e-02  -9.627e-01   0.000e+00
   1.095e+00  -2.893e-02   0.000e+00
   3.917e-01   2.871e-01   0.000e+00
   3.414e-01   1.949e-01   0.000e+00
   1.504e-01   1.123e+00   0.000e+00
   4.394e-01   2.044e-01   0.000e+00
   3.974e-01   1.147e+00   0.000e+00
  -3.776e-02   9.108e-01   0.000e+00
   3.732e-01   2.931e-01   0.000e+00
   6.607e-02   7.445e-01   0.000e+00
   7.492e-02   6.396e-01   0.000e+00
  -6.811e-01   9.164e-01   0.000e+00
  -2.872e-01   2.777e-01   0.000e+00
  -1.189e+00   2.092e-01   0.000e+00
  -1.198e-01   7.606e-01   0.000e+00
  -1.429e-01   7.813e-01   0.000e+00
  -8.072e-01   7.400e-01   0.000e+00
  -1.498e-01   1.759e-01   0.000e+00
  -1.045e+00   5.519e-01   0.000e+00
  -5.134e-01   8.806e-01   0.000e+00
  -8.139e-01   7.396e-01   0.000e+00
  -3.740e-01  -4.139e-01   0.000e+00
   2.540e-01  -9.616e-01   0.000e+00
  -3.830e-01  -4.085e-01   0.000e+00
   2.488e-01  -7.354e-01   0.000e+00
   8.025e-02  -8.082e-01   0.000e+00
   1.247e-01  -9.872e-01   0.000e+00
   9.315e-01  -5.029e-01   0.000e+00
   2.748e-01  -3.295e-01   0.000e+00
   8.060e-01  -1.108e+00   0.000e+00
   7.289e-01  -1.125e-01   0.000e+00
   6.560e-01  -8.138e-02   0.000e+00
   2.767e-01  -3.450e-01   0.000e+00
   2.459e-01  -2.874e-01   0.000e+00
   2.471e-01  -1.197e+00   0.000e+00
   7.064e-02   6.293e-01   0.000e+00
   5.618e-02   6.387e-01   0.000e+00
   3.858e-01   3.202e-01   0.000e+00
  -5.186e-01  -1.192e-01   0.000e+00
  -1.002e+00   3.631e-01   0.000e+00
   8.677e-01  -1.866e-01   0.000e+00
   7.708e-01  -8.794e-02   0.000e+00
   6.397e-02  -6.687e-01   0.000e+00
   1.093e-01  -8.905e-01   0.000e+00
  -6.129e-01  -6.165e-03   0.000e+00
  -6.215e-01  -4.391e-03   0.000e+00
   3.824e-01   3.113e-01   0.000e+00
   1.292e+00   1.341e-01   0.000e+00
   3.932e-01   2.960e-01   0.000e+00
  -6.312e-01   1.202e-02   0.000e+00
  -6.195e-01  -4.384e-03   0.000e+00
  -4.676e-03  -7.268e-01   0.000e+00
  -7.043e-02  -8.133e-01   0.000e+00
   6.592e-02   8.330e-01   0.000e+00
   9.746e-02   6.885e-01   0.000e+00
  -7.454e-03   6.928e-01   0.000e+00
  -1.128e-02   7.037e-01   0.000e+00
  -8.378e-01   6.059e-01   0.000e+00
  -1.027e+00   3.460e-01   0.000e+00
  -3.719e-01  -4.015e-01   0.000e+00
   1.753e-01  -5.744e-01   0.000e+00
  -4.108e-01  -4.228e-01   0.000e+00
   2.807e-01  -1.026e+00   0.000e+00
   1.325e-01  -7.276e-01   0.000e+00
   8.600e-01  -3.619e-01   0.000e+00
   9.467e-01  -3.307e-01   0.000e+00
   8.807e-01  -1.031e-01   0.000e+00
   8.629e-01  -9.442e-02   0.000e+00
  -6.040e-02  -8.528e-01   0.000e+00
   2.783e-01  -3.417e-01   0.000e+00
   2.728e-01  -1.240e+00   0.000e+00
   8.030e-01  -1.595e-01   0.000e+00
   7.315e-01  -8.281e-02   0.000e+00
  -7.594e-01   8.329e-02   0.000e+00
  -6.410e-01   1.938e-02   0.000e+00
  -7.003e-01   2.042e-01   0.000e+00
  -6.367e-01   6.970e-02   0.000e+00
  -1.301e-01   8.526e-01   0.000e+00
  -3.968e-02   7.389e-01   0.000e+00
  -2.867e-01   1.059e+00   0.000e+00
  -1.244e-02   8.081e-01   0.000e+00
  -9.679e-01   1.811e-01   0.000e+00
  -7.670e-01   6.464e-02   0.000e+00
  -1.032e+00   4.063e-02   0.000e+00
  -4.011e-01  -4.065e-01   0.000e+00
  -6.941e-01   5.163e-02   0.000e+00
  -8.956e-01   2.710e-01   0.000e+00
   3.805e-01   2.588e-01   0.000e+00
   1.277e+00   4.144e-01   0.000e+00
   3.825e-01   2.781e-01   0.000e+00
   7.097e-01  -1.002e-01   0.000e+00
   7.242e-01  -1.023e-01   0.000e+00
  -6.190e-01   1.988e-05   0.000e+00
  -6.069e-01  -9.023e-03   0.000e+00
   6.358e-03  -7.093e-01   0.000e+00
   5.424e-03  -7.845e-01   0.000e+00
   9.044e-01  -8.651e-02   0.000e+00
   1.061e+00  -2.142e-01   0.000e+00
   3.649e-01   2.764e-01   0.000e+00
   9.782e-01   9.186e-01   0.000e+00
   3.725e-01   2.644e-01   0.000e+00
   4.413e-01   1.107e+00   0.000e+00
   4.758e-02   6.502e-01   0.000e+00
   2.656e-02   7.609e-01   0.000e+00
  -6.937e-01   6.588e-02   0.000e+00
  -6.468e-01   1.260e-02   0.000e+00
   7.067e-01  -9.897e-02   0.000e+00
   7.245e-01  -1.160e-01   0.000e+00
   1.471e-02  -7.287e-01   0.000e+00
  -4.487e-02  -7.709e-01   0.000e+00
  -1.733e-01  -9.141e-01   0.000e+00
   3.020e-01  -3.556e-01   0.000e+00
  -3.138e-01  -1.074e+00   0.000e+00
   1.104e+00  -2.556e-02   0.000e+00
   4.052e-01   2.946e-01   0.000e+00
   3.933e-01   2.704e-01   0.000e+00
  -5.325e-02   1.091e+00   0.000e+00
   3.763e-01   2.969e-01   0.000e+00
   4.039e-02   9.092e-01   0.000e+00
   3.456e-03   6.564e-01   0.000e+00
   6.134e-02   6.480e-01   0.000e+00
   5.066e-02   6.451e-01   0.000e+00
   6.489e-02   6.548e-01   0.000e+00
   6.155e-02   6.585e-01   0.000e+00
  -3.713e-01   9.461e-01   0.000e+00
  -6.875e-01   9.180e-01   0.000e+00
  -1.467e-01   2.100e-01   0.000e+00
  -1.028e+00   7.411e-01   0.000e+00
  -2.681e-01   2.885e-01   0.000e+00
  -5.881e-01   1.055e+00   0.000e+00
   2.376e-01  -7.100e-01   0.000e+00
  -3.835e-01  -4.125e-01   0.000e+00
  -3.792e-01  -4.052e-01   0.000e+00
  -3.774e-01  -4.118e-01   0.000e+00
   4.303e-02  -8.766e-01   0.000e+00
   2.750e-01  -3.418e-01   0.000e+00
  -2.757e-02  -1.247e+00   0.000e+00
   1.688e-01  -3.426e-01   0.000e+00
   1.105e+00  -6.111e-01   0.000e+00
   9.360e-01  -5.007e-01   0.000e+00
   2.728e-01  -3.541e-01   0.000e+00
   1.152e+00  -3.317e-01   0.000e+00
   2.731e-01  -3.297e-01   0.000e+00
   5.492e-01  -1.143e+00   0.000e+00
   7.827e-01  -7.758e-02   0.000e+00
   7.406e-01  -1.155e-01   0.000e+00
   6.356e-01  -1.045e-01   0.000e+00
   7.660e-01  -7.208e-02   0.000e+00
   4.369e-02   7.069e-01   0.000e+00
  -4.617e-02   5.405e-01   0.000e+00
  -5.554e-01   1.068e+00   0.000e+00
  -2.811e-01   2.915e-01   0.000e+00
   3.827e-01   2.978e-01   0.000e+00
   3.891e-01   2.705e-01   0.000e+00
   1.276e-01   1.087e+00   0.000e+00
  -6.006e-01   3.577e-03   0.000e+00
   2.891e-01  -3.469e-01   0.000e+00
   2.778e-02   6.564e-01   0.000e+00
  -4.877e-02   7.747e-01   0.000e+00
  -1.220e-01   8.586e-01   0.000e+00
  -9.443e-02   7.903e-01   0.000e+00
  -3.759e-01  -3.999e-01   0.000e+00
  -3.752e-01  -4.074e-01   0.000e+00
   2.837e-01  -3.443e-01   0.000e+00
   2.835e-01  -3.459e-01   0.000e+00
  -7.308e-01  -1.067e-02   0.000e+00
  -6.073e-01  -8.455e-03   0.000e+00
   1.026e+00  -1.677e-01   0.000e+00
   2.957e-01  -3.474e-01   0.000e+00
  -3.748e-01  -3.852e-01   0.000e+00
  -1.110e+00   1.182e-01   0.000e+00
  -3.860e-01  -4.058e-01   0.000e+00
   9.362e-01  -2.570e-01   0.000e+00
   4.004e-01   2.884e-01   0.000e+00
   1.123e+00  -1.483e-01   0.000e+00
   3.965e-01   2.916e-01   0.000e+00
   3.770e-01   2.927e-01   0.000e+00
  -1.274e-01   2.242e-01   0.000e+00
  -8.588e-01   8.653e-01   0.000e+00
  -1.092e+00   2.269e-01   0.000e+00
   7.554e-01  -2.879e-02   0.000e+00
   7.021e-01  -1.129e-01   0.000e+00
   2.850e-01  -3.518e-01   0.000e+00
   4.468e-02  -1.125e+00   0.000e+00
   8.208e-01  -1.097e-01   0.000e+00
   9.274e-01  -3.027e-01   0.000e+00
  -2.987e-02  -6.949e-01   0.000e+00
  -7.250e-03  -7.267e-01   0.000e+00
  -5.173e-01   1.092e-01   0.000e+00
   9.739e-03  -6.934e-01   0.000e+00
   3.951e-02   6.793e-01   0.000e+00
   2.189e-02   7.035e-01   0.000e+00
  -1.033e+00   5.574e-01   0.000e+00
  -2.430e-01   2.539e-01   0.000e+00
  -1.151e+00   1.890e-01   0.000e+00
  -4.107e-01  -4.071e-01   0.000e+00
   4.397e-01  -8.026e-01   0.000e+00
  -4.017e-01  -4.034e-01   0.000e+00
   3.721e-01  -8.310e-01   0.000e+00
   8.830e-01  -2.335e-01   0.000e+00
   1.020e+00   5.196e-03   0.000e+00
   2.935e-01  -3.456e-01   0.000e+00
   1.010e+00  -3.763e-01   0.000e+00
  -1.632e-01  -7.142e-01   0.000e+00
  -1.583e-01  -1.122e+00   0.000e+00
  -5.872e-01   7.602e-02   0.000e+00
  -3.472e-01  -4.584e-01   0.000e+00
  -8.031e-01   2.755e-01   0.000e+00
  -6.136e-01   2.209e-02   0.000e+00
  -6.400e-01   4.963e-02   0.000e+00
  -1.664e-01   9.975e-01   0.000e+00
  -2.636e-01   2.794e-01   0.000e+00
  -2.366e-01   1.149e+00   0.000e+00
  -9.740e-01   1.747e-01   0.000e+00
  -8.822e-01   5.190e-02   0.000e+00
  -7.780e-01   4.680e-02   0.000e+00
  -6.581e-01  -2.266e-02   0.000e+00
  -8.054e-01   8.787e-02   0.000e+00
  -3.800e-01  -3.938e-01   0.000e+00
  -8.995e-01   4.655e-01   0.000e+00
   6.827e-01  -9.681e-02   0.000e+00
   7.048e-01  -9.410e-02   0.000e+00
  -6.187e-01  -3.028e-02   0.000e+00
  -5.828e-01   1.009e-02   0.000e+00
   5.690e-02   7.254e-01   0.000e+00
   4.415e-02   6.800e-01   0.000e+00
   7.537e-01  -1.673e-01   0.000e+00
   7.026e-01  -2.412e-01   0.000e+00
  -6.492e-02  -6.457e-01   0.000e+00
  -1.142e-01  -8.053e-01   0.000e+00
  -5.551e-03  -6.559e-01   0.000e+00
  -5.226e-02  -7.363e-01   0.000e+00
   3.776e-01   3.055e-01   0.000e+00
   4.040e-01   3.074e-01   0.000e+00
   1.083e+00  -3.682e-01   0.000e+00
   3.748e-01   3.014e-01   0.000e+00
  -1.987e-01   9.511e-01   0.000e+00
   6.795e-02   6.887e-01   0.000e+00
   8.852e-02   6.552e-01   0.000e+00
   9.918e-04   6.052e-01   0.000e+00
   5.941e-02   6.451e-01   0.000e+00
  -4.090e-01   1.046e+00   0.000e+00
  -2.676e-01   2.594e-01   0.000e+00
  -9.168e-01   8.798e-01   0.000e+00
  -3.814e-01  -4.030e-01   0.000e+00
  -3.913e-01  -4.134e-01   0.000e+00
  -3.553e-02  -9.497e-01   0.000e+00
   2.826e-01  -3.560e-01   0.000e+00
  -1.231e-01  -1.071e+00   0.000e+00
   2.603e-01  -3.079e-01   0.000e+00
   1.068e+00  -6.252e-01   0.000e+00
   1.755e-01  -2.823e-01   0.000e+00
   1.138e+00  -3.213e-01   0.000e+00
   3.147e-02   7.069e-01   0.000e+00
   5.771e-02   6.481e-01   0.000e+00
  -2.868e-01   2.563e-01   0.000e+00
  -1.921e-01   1.193e+00   0.000e+00
  -2.738e-01   2.812e-01   0.000e+00
  -4.806e-01   1.193e+00   0.000e+00
   2.882e-01  -3.566e-01   0.000e+00
   1.069e+00  -5.562e-03   0.000e+00
   4.735e-02  -3.702e-01   0.000e+00
  -6.863e-01   2.979e-02   0.000e+00
  -6.543e-01  -4.308e-02   0.000e+00
   3.965e-01   2.910e-01   0.000e+00
   3.900e-01   2.917e-01   0.000e+00
   1.761e-01  -5.753e-01   0.000e+00
   3.668e-01  -5.678e-01   0.000e+00
  -1.149e-01   7.906e-01   0.000e+00
  -4.509e-02   7.025e-01   0.000e+00
   3.957e-01   3.029e-01   0.000e+00
   4.091e-01   3.091e-01   0.000e+00
   8.036e-01  -4.637e-01   0.000e+00
  -5.767e-01   1.497e-01   0.000e+00
   5.807e-02  -5.818e-01   0.000e+00
   1.017e+00  -1.623e-01   0.000e+00
   7.793e-01   2.924e-02   0.000e+00
  -6.858e-01   9.910e-02   0.000e+00
  -3.826e-01  -3.934e-01   0.000e+00
   3.666e-02   6.402e-01   0.000e+00
   2.204e-01   9.578e-01   0.000e+00
   5.733e-02   6.581e-01   0.000e+00
   9.513e-02   6.784e-01   0.000e+00
  -1.872e-02   9.022e-01   0.000e+00
  -2.525e-01   2.995e-01   0.000e+00
  -1.198e+00   4.155e-01   0.000e+00
  -3.803e-01  -3.968e-01   0.000e+00
   3.412e-01  -5.277e-01   0.000e+00
   2.846e-01  -3.480e-01   0.000e+00
   2.948e-01  -3.393e-01   0.000e+00
   5.673e-01  -7.592e-02   0.000e+00
   6.961e-01  -1.150e-02   0.000e+00
  -8.839e-01   4.848e-02   0.000e+00
  -8.524e-01  -7.795e-02   0.000e+00
   3.774e-01   2.999e-01   0.000e+00
   3.702e-01   3.056e-01   0.000e+00
  -2.013e-01   1.058e+00   0.000e+00
   2.830e-01  -3.460e-01   0.000e+00
   2.846e-01  -3.424e-01   0.000e+00
  -2.549e-01  -9.530e-01   0.000e+00
   2.846e-01  -3.510e-01   0.000e+00
   7.031e-01  -1.550e-01   0.000e+00
   4.238e-01   3.795e-01   0.000e+00
   8.059e-01  -4.531e-01   0.000e+00
  -2.780e-01   2.898e-01   0.000e+00
  -2.576e-01   2.923e-01   0.000e+00
  -1.077e+00   5.864e-01   0.000e+00
   8.528e-01  -1.749e-03   0.000e+00
   9.179e-01   1.292e-01   0.000e+00
   2.736e-01  -3.466e-01   0.000e+00
   1.180e+00  -8.116e-02   0.000e+00
   2.882e-01  -3.502e-01   0.000e+00
   2.892e-01  -3.511e-01   0.000e+00
  -5.744e-01   2.168e-02   0.000e+00
   1.981e-02   9.270e-01   0.000e+00
  -1.493e-01   1.010e+00   0.000e+00
  -2.714e-01   3.044e-01   0.000e+00
   1.114e-01   8.151e-01   0.000e+00
  -7.241e-01  -7.482e-02   0.000e+00
  -6.127e-01  -6.305e-02   0.000e+00
  -3.757e-01  -5.075e-01   0.000e+00
  -7.454e-01   3.751e-01   0.000e+00
  -3.825e-01  -3.956e-01   0.000e+00
   7.041e-01  -6.727e-02   0.000e+00
   6.981e-01  -1.110e-01   0.000e+00
  -6.249e-01  -1.700e-02   0.000e+00
  -5.923e-01  -4.541e-02   0.000e+00
  -7.300e-01  -1.427e-01   0.000e+00
  -5.720e-01  -6.152e-03   0.000e+00
   7.479e-01  -1.259e-01   0.000e+00
   7.989e-01  -1.872e-01   0.000e+00
   6.531e-01  -1.825e-01   0.000e+00
   6.909e-01  -1.169e-01   0.000e+00
  -8.574e-02  -7.188e-01   0.000e+00
  -1.732e-01  -9.275e-01   0.000e+00
   5.201e-02  -6.760e-01   0.000e+00
  -3.173e-02  -6.996e-01   0.000e+00
  -3.377e-01  -8.025e-01   0.000e+00
  -8.766e-02  -6.785e-01   0.000e+00
   3.773e-01   3.008e-01   0.000e+00
   3.893e-01   2.646e-01   0.000e+00
  -1.506e-01   9.498e-01   0.000e+00
  -2.185e-01   7.425e-01   0.000e+00
   4.180e-01   3.153e-01   0.000e+00
  -3.591e-01   7.916e-01   0.000e+00
   5.100e-02   6.660e-01   0.000e+00
   6.461e-02   6.438e-01   0.000e+00
  -2.473e-01   2.843e-01   0.000e+00
  -7.480e-01   1.087e+00   0.000e+00
  -2.800e-01   2.904e-01   0.000e+00
  -3.873e-01  -3.987e-01   0.000e+00
  -4.188e-01   3.436e-01   0.000e+00
  -3.828e-01  -4.113e-01   0.000e+00
  -3.924e-01  -4.074e-01   0.000e+00
   4.687e-01  -4.703e-01   0.000e+00
   2.927e-01  -3.518e-01   0.000e+00
   2.974e-01  -3.455e-01   0.000e+00
  -4.271e-01  -8.232e-01   0.000e+00
   5.976e-01  -1.591e-01   0.000e+00
   6.943e-01  -5.268e-03   0.000e+00
   3.892e-01   2.914e-01   0.000e+00
   3.832e-01   2.950e-01   0.000e+00
  -2.856e-01   2.953e-01   0.000e+00
  -1.015e+00  -4.781e-02   0.000e+00
  -1.722e-01   6.594e-01   0.000e+00
  -7.675e-03   6.195e-01   0.000e+00
  -4.087e-01  -3.955e-01   0.000e+00
   4.940e-01  -4.888e-01   0.000e+00
   8.772e-02  -4.693e-01   0.000e+00
   4.082e-01   3.099e-01   0.000e+00
   3.898e-01   3.084e-01   0.000e+00
  -2.295e-02   7.024e-01   0.000e+00
   5.582e-02   6.448e-01   0.000e+00
   6.961e-01  -1.521e-01   0.000e+00
   6.132e-01  -1.200e-02   0.000e+00
  -5.208e-01   1.309e-02   0.000e+00
  -5.868e-01   7.581e-02   0.000e+00
   2.789e-01  -3.480e-01   0.000e+00
   2.848e-01  -3.525e-01   0.000e+00
   2.914e-01  -3.750e-01   0.000e+00
   8.447e-01   3.031e-01   0.000e+00
   2.966e-01  -3.548e-01   0.000e+00
  -1.203e-01  -5.729e-01   0.000e+00
  -8.353e-02  -6.804e-01   0.000e+00
  -2.496e-01   2.421e-01   0.000e+00
   4.426e-02   1.103e+00   0.000e+00
  -2.695e-01   3.041e-01   0.000e+00
   7.165e-01  -3.837e-01   0.000e+00
   7.228e-01  -2.517e-01   0.000e+00
  -2.416e-02  -6.027e-01   0.000e+00
   2.500e-04  -6.474e-01   0.000e+00
   3.808e-01   3.015e-01   0.000e+00
  -3.354e-01   7.424e-01   0.000e+00
   5.042e-02   6.264e-01   0.000e+00
   1.265e-02   1.080e+00   0.000e+00
  -7.428e-01  -7.928e-03   0.000e+00
  -6.064e-01  -2.891e-02   0.000e+00
  -3.871e-01  -4.070e-01   0.000e+00
   2.201e-01  -5.010e-01   0.000e+00
  -6.326e-01   2.026e-01   0.000e+00
  -3.843e-01  -3.947e-01   0.000e+00
  -4.605e-02  -4.691e-01   0.000e+00
   8.928e-02  -6.069e-01   0.000e+00
   9.192e-01   6.024e-02   0.000e+00
   7.575e-01   1.822e-01   0.000e+00
   6.383e-02   6.679e-01   0.000e+00
   8.721e-02   6.205e-01   0.000e+00
   1.502e-01   7.179e-01   0.000e+00
   2.565e-01   8.019e-01   0.000e+00
   2.830e-01  -3.483e-01   0.000e+00
   2.846e-01  -3.481e-01   0.000e+00
  -8.525e-01  -2.905e-01   0.000e+00
  -2.872e-01   2.766e-01   0.000e+00
  -1.186e+00  -1.338e-01   0.000e+00
   2.890e-01  -3.407e-01   0.000e+00
   2.841e-01  -3.498e-01   0.000e+00
   4.076e-01   3.300e-01   0.000e+00
   5.489e-01  -5.295e-01   0.000e+00
   6.139e-01  -3.213e-01   0.000e+00
  -2.714e-01   2.975e-01   0.000e+00
  -2.787e-01   2.929e-01   0.000e+00
   7.745e-01   6.056e-02   0.000e+00
   4.678e-01  -1.505e-01   0.000e+00
   2.947e-01  -3.535e-01   0.000e+00
   2.868e-01  -3.721e-01   0.000e+00
   1.084e+00   1.565e-01   0.000e+00
   7.615e-02   8.032e-01   0.000e+00
   2.556e-01   7.922e-01   0.000e+00
  -8.058e-01  -8.298e-02   0.000e+00
  -6.527e-01  -8.459e-02   0.000e+00
  -6.337e-01   2.005e-01   0.000e+00
  -3.852e-01  -3.942e-01   0.000e+00
  -5.479e-01  -3.897e-02   0.000e+00
  -5.763e-01  -1.175e-01   0.000e+00
  -3.245e-01   5.539e-01   0.000e+00
   3.848e-01   3.080e-01   0.000e+00
   5.846e-02   6.393e-01   0.000e+00
   7.814e-02   6.595e-01   0.000e+00
  -2.801e-01   2.902e-01   0.000e+00
  -2.826e-01   2.798e-01   0.000e+00
  -3.852e-01  -3.998e-01   0.000e+00
  -3.814e-01  -3.912e-01   0.000e+00
  -5.543e-01   2.828e-01   0.000e+00
  -3.856e-01  -4.199e-01   0.000e+00
  -4.778e-01   3.943e-01   0.000e+00
  -3.894e-01  -4.058e-01   0.000e+00
   3.264e-01  -1.792e-01   0.000e+00
  -3.972e-01   1.840e-01   0.000e+00
  -2.610e-01  -5.952e-01   0.000e+00
   3.950e-01   3.027e-01   0.000e+00
   3.822e-01   3.070e-01   0.000e+00
   1.653e-01  -3.878e-01   0.000e+00
  -6.221e-02  -3.346e-01   0.000e+00
  -2.946e-01   2.877e-01   0.000e+00
   3.749e-02   5.520e-01   0.000e+00
  -5.356e-01   3.099e-02   0.000e+00
  -5.090e-01   2.063e-01   0.000e+00
   7.738e-03   4.676e-01   0.000e+00
  -9.822e-02   4.494e-01   0.000e+00
   3.883e-01   3.016e-01   0.000e+00
   3.904e-01   2.949e-01   0.000e+00
   3.074e-01  -2.729e-01   0.000e+00
   4.017e-01   3.079e-01   0.000e+00
   1.226e-01   9.099e-01   0.000e+00
  -2.871e-01   3.257e-01   0.000e+00
   2.879e-01   1.067e+00   0.000e+00
  -9.973e-01  -2.177e-01   0.000e+00
  -6.514e-01  -1.065e-01   0.000e+00
   2.826e-01  -3.507e-01   0.000e+00
   2.735e-01  -5.010e-01   0.000e+00
   8.381e-01   2.563e-01   0.000e+00
  -2.602e-01   3.138e-01   0.000e+00
   3.294e-02   1.180e+00   0.000e+00
  -2.924e-01   2.905e-01   0.000e+00
  -1.715e-01  -7.389e-01   0.000e+00
   3.312e-01  -3.514e-01   0.000e+00
  -4.803e-01  -8.139e-01   0.000e+00
   3.817e-01   3.194e-01   0.000e+00
  -4.175e-01   7.982e-01   0.000e+00
  -3.465e-01   5.901e-01   0.000e+00
   2.577e-01  -4.841e-01   0.000e+00
   7.038e-01   4.009e-01   0.000e+00
   6.040e-01   1.540e-02   0.000e+00
  -9.372e-02   6.597e-01   0.000e+00
  -6.900e-02   6.182e-01   0.000e+00
  -1.166e-02  -5.781e-01   0.000e+00
  -5.299e-02  -4.812e-01   0.000e+00
   3.877e-01   3.015e-01   0.000e+00
   3.827e-01   3.094e-01   0.000e+00
   3.417e-01  -4.576e-01   0.000e+00
   5.069e-01  -8.277e-02   0.000e+00
   2.831e-01  -3.488e-01   0.000e+00
   2.856e-01  -3.492e-01   0.000e+00
   2.785e-01  -3.675e-01   0.000e+00
   7.553e-01   2.125e-01   0.000e+00
   2.873e-01  -3.585e-01   0.000e+00
   2.956e-01  -3.724e-01   0.000e+00
  -3.270e-01  -6.794e-01   0.000e+00
   3.223e-01  -3.138e-01   0.000e+00
  -5.484e-01  -5.282e-01   0.000e+00
  -3.031e-01   2.753e-01   0.000e+00
   4.221e-01  -3.765e-01   0.000e+00
   6.615e-01   9.917e-02   0.000e+00
   5.908e-01   1.663e-01   0.000e+00
   6.061e-02   6.071e-01   0.000e+00
   1.517e-01   6.385e-01   0.000e+00
   1.054e-01   7.095e-01   0.000e+00
  -2.869e-01   3.190e-01   0.000e+00
  -3.006e-01   2.852e-01   0.000e+00
  -9.679e-01  -2.728e-01   0.000e+00
  -3.100e-01   2.955e-01   0.000e+00
  -4.693e-01   1.007e-01   0.000e+00
   2.848e-01  -3.476e-01   0.000e+00
   3.708e-01   3.672e-01   0.000e+00
   5.355e-01  -5.160e-01   0.000e+00
  -4.004e-02   2.794e-01   0.000e+00
   5.395e-01  -1.923e-01   0.000e+00
   5.741e-01  -4.256e-01   0.000e+00
   6.659e-01   7.758e-02   0.000e+00
   5.454e-01   6.497e-02   0.000e+00
  -5.453e-01  -4.264e-02   0.000e+00
  -5.825e-01  -9.886e-02   0.000e+00
  -5.044e-01  -1.118e-01   0.000e+00
  -2.800e-01   4.304e-01   0.000e+00
  -7.395e-01  -3.996e-01   0.000e+00
  -5.038e-02   5.468e-01   0.000e+00
  -2.390e-01   4.256e-01   0.000e+00
  -4.988e-01   2.200e-01   0.000e+00
  -4.100e-01  -4.325e-01   0.000e+00
  -2.955e-01   4.885e-01   0.000e+00
  -2.974e-01  -4.909e-01   0.000e+00
  -5.149e-01   4.241e-01   0.000e+00
  -3.819e-01  -4.516e-01   0.000e+00
  -1.333e-01   3.787e-01   0.000e+00
  -3.958e-01  -3.837e-01   0.000e+00
  -3.928e-01  -4.115e-01   0.000e+00
   5.049e-01  -1.214e-01   0.000e+00
  -3.357e-01  -6.766e-01   0.000e+00
   2.965e-01  -3.423e-01   0.000e+00
  -5.720e-01  -5.543e-01   0.000e+00
   1.162e-01   5.710e-01   0.000e+00
   1.731e-01   4.267e-01   0.000e+00
   6.058e-02  -5.506e-02   0.000e+00
   2.032e-01  -3.117e-01   0.000e+00
   3.883e-01   3.073e-01   0.000e+00
  -5.755e-01   2.741e-01   0.000e+00
   3.978e-01   3.114e-01   0.000e+00
  -8.506e-01  -2.473e-01   0.000e+00
  -7.449e-01  -2.164e-01   0.000e+00
  -2.871e-01   3.058e-01   0.000e+00
  -2.942e-01   2.904e-01   0.000e+00
   1.687e-01   7.753e-01   0.000e+00
  -3.573e-01   2.858e-01   0.000e+00
   2.245e-01   1.031e+00   0.000e+00
  -4.738e-01  -2.547e-02   0.000e+00
  -3.007e-01   3.088e-01   0.000e+00
  -9.676e-01  -3.477e-01   0.000e+00
  -4.420e-01  -4.453e-01   0.000e+00
   3.982e-01  -1.946e-01   0.000e+00
   1.306e-01  -2.129e-01   0.000e+00
  -4.498e-01  -5.507e-01   0.000e+00
  -1.336e-01  -5.944e-01   0.000e+00
  -2.833e-01   2.982e-01   0.000e+00
  -7.416e-01  -4.853e-01   0.000e+00
   9.679e-02   4.918e-01   0.000e+00
   3.987e-02   5.489e-01   0.000e+00
   3.149e-01   7.622e-01   0.000e+00
  -1.036e-01   2.023e-01   0.000e+00
  -4.790e-01   9.193e-02   0.000e+00
  -3.416e-01   2.729e-01   0.000e+00
   4.253e-01   8.642e-01   0.000e+00
  -2.783e-01   3.221e-01   0.000e+00
  -3.862e-02   3.237e-02   0.000e+00
   2.851e-01  -3.563e-01   0.000e+00
   4.055e-01   2.928e-01   0.000e+00
  -4.790e-01   5.765e-01   0.000e+00
  -3.874e-01  -1.328e-02   0.000e+00
   4.353e-02  -5.059e-01   0.000e+00
  -1.960e-01  -4.817e-01   0.000e+00
   3.856e-01   3.116e-01   0.000e+00
   3.898e-01   3.122e-01   0.000e+00
  -4.832e-01   5.817e-01   0.000e+00
   2.787e-01  -3.503e-01   0.000e+00
   4.980e-01   1.716e-02   0.000e+00
   2.813e-01  -3.572e-01   0.000e+00
   2.028e-01  -4.894e-01   0.000e+00
   5.095e-01   3.820e-01   0.000e+00
   5.783e-01   2.331e-01   0.000e+00
   4.297e-01   4.731e-01   0.000e+00
   1.085e-01   6.436e-01   0.000e+00
   2.487e-01   6.622e-01   0.000e+00
  -4.394e-01   4.045e-02   0.000e+00
   2.671e-01  -3.692e-01   0.000e+00
   2.634e-01   5.996e-01   0.000e+00
   2.829e-01  -3.470e-01   0.000e+00
   2.830e-01  -3.505e-01   0.000e+00
   3.969e-01   3.274e-01   0.000e+00
   2.461e-01  -6.018e-01   0.000e+00
   3.969e-01   3.111e-01   0.000e+00
   5.555e-01  -6.172e-02   0.000e+00
   4.775e-01  -3.074e-01   0.000e+00
   5.075e-01  -2.846e-01   0.000e+00
   2.978e-01  -4.135e-01   0.000e+00
   5.316e-01   1.163e-01   0.000e+00
   3.983e-01   7.625e-02   0.000e+00
  -6.127e-01  -1.377e-01   0.000e+00
  -4.681e-01  -3.226e-02   0.000e+00
   4.889e-01   3.695e-01   0.000e+00
  -1.920e-01  -3.098e-01   0.000e+00
  -4.228e-01  -3.742e-01   0.000e+00
  -1.687e-01   5.613e-01   0.000e+00
  -1.567e-01   5.421e-01   0.000e+00
  -4.055e-01   1.774e-01   0.000e+00
  -4.170e-01  -4.238e-01   0.000e+00
   7.087e-02   2.732e-01   0.000e+00
  -3.919e-01  -3.894e-01   0.000e+00
  -4.406e-01  -4.051e-01   0.000e+00
   4.062e-01   2.751e-02   0.000e+00
  -5.220e-01  -3.331e-01   0.000e+00
   2.805e-01  -3.448e-01   0.000e+00
  -5.075e-01  -5.780e-02   0.000e+00
   2.451e-02  -3.482e-01   0.000e+00
  -4.778e-01  -2.748e-01   0.000e+00
   2.825e-01  -3.453e-01   0.000e+00
   2.750e-01  -3.519e-01   0.000e+00
  -3.041e-01   1.166e-01   0.000e+00
   4.338e-01  -3.178e-02   0.000e+00
  -2.865e-01   2.981e-01   0.000e+00
   1.919e-01   5.298e-01   0.000e+00
   1.217e-02  -1.536e-01   0.000e+00
  -3.721e-01   7.457e-02   0.000e+00
  -3.003e-01   2.911e-01   0.000e+00
  -8.768e-02   4.334e-01   0.000e+00
  -2.095e-02  -3.300e-01   0.000e+00
  -2.199e-01   3.953e-01   0.000e+00
  -3.033e-01   3.023e-01   0.000e+00
  -3.002e-01   2.900e-01   0.000e+00
  -2.237e-01   1.937e-01   0.000e+00
   2.117e-01  -1.967e-01   0.000e+00
  -4.425e-01  -4.039e-01   0.000e+00
   2.544e-01   1.287e-01   0.000e+00
   3.012e-01  -3.422e-01   0.000e+00
  -4.211e-01   2.697e-01   0.000e+00
  -6.734e-01  -3.736e-01   0.000e+00
  -3.094e-01   3.356e-01   0.000e+00
  -4.246e-01  -4.865e-01   0.000e+00
   2.855e-01  -3.497e-01   0.000e+00
   2.841e-01  -3.496e-01   0.000e+00
  -5.168e-01  -9.743e-02   0.000e+00
  -4.222e-01  -1.116e-01   0.000e+00
  -6.184e-01  -2.172e-01   0.000e+00
  -6.579e-01  -2.320e-01   0.000e+00
  -4.630e-01   1.916e-01   0.000e+00
  -4.526e-01   3.778e-01   0.000e+00
  -2.978e-01   2.794e-01   0.000e+00
  -3.996e-01  -4.563e-01   0.000e+00
  -4.271e-03   4.135e-01   0.000e+00
   1.145e-01   5.723e-01   0.000e+00
   1.989e-01   6.104e-01   0.000e+00
   3.912e-01   3.164e-01   0.000e+00
  -4.022e-01   3.015e-01   0.000e+00
  -2.761e-01   2.985e-01   0.000e+00
  -2.780e-01   3.041e-01   0.000e+00
   3.240e-01  -1.835e-01   0.000e+00
   5.306e-02  -2.588e-01   0.000e+00
  -3.556e-01  -4.629e-01   0.000e+00
   2.930e-01  -3.303e-01   0.000e+00
  -6.643e-01  -2.394e-01   0.000e+00
   5.872e-02   3.367e-01   0.000e+00
  -2.941e-01   2.954e-01   0.000e+00
  -2.936e-01   3.090e-01   0.000e+00
   1.521e-02   4.575e-01   0.000e+00
  -3.209e-01   3.311e-01   0.000e+00
   4.204e-01   8.507e-01   0.000e+00
  -2.937e-01   2.999e-01   0.000e+00
  -8.699e-02  -4.100e-01   0.000e+00
  -3.446e-01  -4.699e-01   0.000e+00
   3.893e-01   3.082e-01   0.000e+00
   3.843e-01   3.112e-01   0.000e+00
  -4.693e-01   1.700e-01   0.000e+00
   2.805e-01  -3.731e-01   0.000e+00
   5.920e-01   5.056e-01   0.000e+00
   2.651e-01   3.986e-01   0.000e+00
   1.585e-01   6.541e-01   0.000e+00
   3.685e-01   5.624e-01   0.000e+00
   4.568e-01   2.394e-01   0.000e+00
  -3.138e-01   8.252e-03   0.000e+00
   3.907e-01   3.162e-01   0.000e+00
   4.002e-01   3.242e-01   0.000e+00
   1.064e-01  -4.650e-01   0.000e+00
   4.256e-01  -1.760e-01   0.000e+00
   3.740e-01  -2.430e-01   0.000e+00
   3.511e-01  -5.575e-02   0.000e+00
   5.160e-02  -1.517e-01   0.000e+00
  -5.465e-01  -1.856e-01   0.000e+00
  -5.159e-01  -1.775e-01   0.000e+00
  -2.280e-02   3.781e-01   0.000e+00
  -3.709e-01   7.538e-02   0.000e+00
  -4.428e-01  -4.167e-01   0.000e+00
   2.567e-01   2.222e-01   0.000e+00
   2.106e-01  -5.587e-02   0.000e+00
   2.750e-01  -3.471e-01   0.000e+00
  -2.795e-01   2.960e-01   0.000e+00
  -3.162e-01  -3.032e-01   0.000e+00
   4.116e-01   3.273e-01   0.000e+00
  -3.148e-02  -5.023e-01   0.000e+00
   1.935e-02  -3.215e-01   0.000e+00
   2.211e-01  -1.304e-02   0.000e+00
  -1.353e-03  -1.920e-01   0.000e+00
  -2.724e-01   1.449e-01   0.000e+00
  -2.022e-01   1.505e-01   0.000e+00
  -1.354e-02   2.293e-01   0.000e+00
  -2.016e-01   3.795e-01   0.000e+00
  -5.359e-01  -5.318e-01   0.000e+00
  -2.976e-01   2.966e-01   0.000e+00
  -2.982e-01   3.018e-01   0.000e+00
   7.350e-02   1.031e-01   0.000e+00
  -4.259e-01   2.910e-02   0.000e+00
   1.978e-01   5.252e-01   0.000e+00
   1.034e-01   4.848e-01   0.000e+00
   2.803e-01  -3.687e-01   0.000e+00
   5.654e-03   5.381e-01   0.000e+00
  -2.653e-04   2.161e-01   0.000e+00
   2.739e-01  -3.647e-01   0.000e+00
   9.106e-02   4.849e-01   0.000e+00
   1.175e-01   1.328e-01   0.000e+00
  -2.110e-01  -3.631e-01   0.000e+00
   2.887e-01  -3.654e-01   0.000e+00
  -5.458e-01   3.855e-02   0.000e+00
  -4.843e-01   3.054e-01   0.000e+00
   5.483e-01   3.850e-01   0.000e+00
   3.186e-01   4.455e-01   0.000e+00
  -2.777e-01   2.865e-01   0.000e+00
  -2.405e-03   3.447e-01   0.000e+00
  -3.036e-01   2.968e-01   0.000e+00
   5.223e-01   6.491e-01   0.000e+00
  -2.939e-01   3.696e-01   0.000e+00
  -1.193e-01  -4.744e-01   0.000e+00
  -9.174e-02   3.854e-01   0.000e+00
   1.429e-01  -4.484e-01   0.000e+00
   1.779e-01  -9.632e-02   0.000e+00
   2.916e-01  -1.139e-01   0.000e+00
  -5.419e-01  -3.163e-01   0.000e+00
  -3.833e-01  -1.988e-01   0.000e+00
  -4.328e-01  -1.012e-01   0.000e+00
  -3.348e-01  -9.242e-02   0.000e+00
  -3.676e-01  -3.308e-02   0.000e+00
  -1.052e-01   1.595e-01   0.000e+00
   1.493e-01  -1.659e-01   0.000e+00
  -7.358e-02  -2.137e-01   0.000e+00
   1.713e-01   4.284e-01   0.000e+00
   5.020e-02   2.283e-01   0.000e+00
  -2.873e-01   3.065e-01   0.000e+00
  -2.938e-01   3.002e-01   0.000e+00
  -1.700e-01  -4.139e-01   0.000e+00
  -3.021e-01  -3.188e-01   0.000e+00
   2.685e-01   5.884e-01   0.000e+00
  -4.843e-01   3.056e-01   0.000e+00
   4.363e-01   6.533e-01   0.000e+00
   3.964e-01   3.421e-01   0.000e+00
  -2.207e-01  -3.183e-01   0.000e+00
   4.395e-01   4.147e-01   0.000e+00
  -3.700e-01  -1.473e-01   0.000e+00
   4.094e-01   5.736e-02   0.000e+00
   3.434e-01  -4.561e-02   0.000e+00
  -5.112e-01  -3.066e-01   0.000e+00
  -4.693e-01  -2.174e-01   0.000e+00
  -1.072e-01   2.931e-01   0.000e+00
  -1.361e-01   3.404e-01   0.000e+00
  -3.747e-01  -2.439e-02   0.000e+00
  -2.810e-01   4.617e-02   0.000e+00
  -3.326e-01   1.455e-01   0.000e+00
  -2.948e-01  -1.501e-01   0.000e+00
  -3.426e-01  -1.773e-01   0.000e+00
  -1.002e-01  -2.866e-01   0.000e+00
   3.683e-01   2.508e-02   0.000e+00
   1.715e-01   3.132e-01   0.000e+00
  -1.183e-01   2.302e-01   0.000e+00
   7.339e-02   1.008e-01   0.000e+00
  -1.722e-01  -5.850e-02   0.000e+00
  -4.201e-02   9.188e-02   0.000e+00
  -3.332e-01   3.506e-01   0.000e+00
  -3.025e-01  -5.629e-01   0.000e+00
  -2.371e-01  -1.926e-01   0.000e+00
  -8.288e-02   9.333e-02   0.000e+00
  -2.352e-01   2.995e-02   0.000e+00
   5.125e-02  -7.737e-02   0.000e+00
  -8.957e-02  -1.099e-01   0.000e+00
  -2.985e-01   3.130e-01   0.000e+00
   5.059e-01  -2.198e-02   0.000e+00
  -2.953e-01   3.001e-01   0.000e+00
  -1.223e-01  -6.254e-01   0.000e+00
  -1.996e-02   1.296e-01   0.000e+00
  -1.442e-01   2.263e-01   0.000e+00
  -2.994e-01   3.066e-01   0.000e+00
  -2.942e-01   3.122e-01   0.000e+00
   3.806e-01   2.078e-01   0.000e+00
   2.502e-01   8.094e-02   0.000e+00
   2.611e-01  -6.486e-02   0.000e+00
  -2.994e-01  -1.107e-02   0.000e+00
   9.563e-02  -2.140e-01   0.000e+00
  -1.099e-01  -4.510e-02   0.000e+00
  -1.772e-01  -2.696e-01   0.000e+00
  -5.273e-01  -9.566e-02   0.000e+00
  -6.922e-02   2.096e-01   0.000e+00
   4.579e-04   2.100e-02   0.000e+00
   5.458e-01   1.709e-01   0.000e+00
  -3.069e-01   3.348e-01   0.000e+00
   5.172e-01  -5.128e-02   0.000e+00
  -3.184e-01   1.467e-01   0.000e+00
  -1.857e-01  -4.506e-02   0.000e+00
   2.684e-01  -3.735e-01   0.000e+00
  -2.443e-01   4.372e-01   0.000e+00
   1.641e-01   4.605e-01   0.000e+00
   2.926e-01   4.044e-01   0.000e+00
  -3.010e-01   3.091e-01   0.000e+00
   7.168e-01   2.963e-01   0.000e+00
   1.496e-01   2.320e-01   0.000e+00
   2.809e-01   1.089e-01   0.000e+00
  -2.762e-01  -3.319e-01   0.000e+00
  -3.696e-01  -2.115e-01   0.000e+00
  -3.297e-01  -9.780e-02   0.000e+00
  -2.352e-01  -8.688e-02   0.000e+00
   4.314e-01   3.435e-01   0.000e+00
  -3.574e-01  -3.680e-02   0.000e+00
  -1.819e-01   4.500e-02   0.000e+00
  -1.810e-01   4.688e-02   0.000e+00
  -2.463e-01   1.523e-01   0.000e+00
  -3.727e-02  -8.651e-02   0.000e+00
  -2.082e-01  -2.232e-01   0.000e+00
  -3.063e-01   2.958e-01   0.000e+00
   2.407e-01  -4.831e-01   0.000e+00
  -4.472e-02  -5.092e-01   0.000e+00
  -1.559e-01  -1.824e-01   0.000e+00
  -3.194e-01   3.960e-02   0.000e+00
  -1.179e-01  -1.022e-01   0.000e+00
  -1.334e-01   3.113e-01   0.000e+00
   8.371e-02   2.758e-01   0.000e+00
   3.441e-01   2.738e-01   0.000e+00
  -1.985e-01  -9.942e-02   0.000e+00
  -1.845e-01   8.908e-02   0.000e+00
   1.626e-01  -6.917e-04   0.000e+00
  -1.262e-01   2.104e-01   0.000e+00
   8.762e-02   3.835e-01   0.000e+00
   7.665e-02   3.987e-01   0.000e+00
  -4.469e-02   1.779e-01   0.000e+00
  -4.963e-02  -2.123e-01   0.000e+00
  -1.787e-01  -6.152e-02   0.000e+00
  -3.997e-01  -1.941e-02   0.000e+00
  -2.800e-01  -3.286e-01   0.000e+00
  -2.192e-01   2.956e-03   0.000e+00
  -1.420e-01  -6.310e-02   0.000e+00
  -1.324e-01   4.685e-03   0.000e+00
  -3.771e-02  -8.766e-02   0.000e+00
  -1.282e-01  -5.370e-02   0.000e+00
  -4.832e-01   3.071e-01   0.000e+00
   4.903e-01   2.938e-01   0.000e+00
  -3.300e-01   3.052e-01   0.000e+00
   3.754e-01  -2.329e-01   0.000e+00
  -9.725e-02  -1.692e-01   0.000e+00
  -1.245e-01   1.236e-01   0.000e+00
   4.278e-02  -6.916e-02   0.000e+00
  -1.117e-02  -1.586e-01   0.000e+00
  -3.907e-02   2.331e-02   0.000e+00
  -6.985e-02  -4.043e-02   0.000e+00
   1.902e-01   2.160e-01   0.000e+00
   1.619e-01   3.036e-01   0.000e+00
  -3.104e-01  -8.556e-03   0.000e+00
  -2.483e-01   4.529e-02   0.000e+00
   1.121e-02   3.586e-01   0.000e+00
   1.080e-01  -1.921e-02   0.000e+00
   2.600e-01   2.856e-01   0.000e+00
   1.500e-01   8.320e-02   0.000e+00
  -2.705e-01  -1.545e-01   0.000e+00
  -2.579e-01  -5.705e-02   0.000e+00
  -2.133e-01  -1.076e-01   0.000e+00
  -9.866e-02  -1.447e-02   0.000e+00
  -7.072e-02  -8.564e-02   0.000e+00
  -1.965e-01  -6.129e-02   0.000e+00
  -1.040e-01  -1.755e-01   0.000e+00
  -1.889e-01  -1.960e-01   0.000e+00
  -3.035e-01   3.028e-01   0.000e+00
  -3.323e-01   3.198e-01   0.000e+00
   3.826e-01  -2.786e-01   0.000e+00
   9.499e-02   3.949e-02   0.000e+00
  -1.026e-01  -2.949e-01   0.000e+00
   1.620e-02  -8.186e-03   0.000e+00
  -2.623e-01   3.005e-01   0.000e+00
  -8.764e-02   5.070e-02   0.000e+00
  -3.886e-02   1.756e-02   0.000e+00
   7.145e-02   1.771e-01   0.000e+00
   2.194e-01   2.108e-02   0.000e+00
   2.216e-01   1.295e-02   0.000e+00
  -1.610e-01  -1.569e-01   0.000e+00
   3.427e-02   1.221e-01   0.000e+00
  -1.882e-01   1.743e-03   0.000e+00
  -2.729e-01  -5.848e-02   0.000e+00
  -1.010e-01  -9.729e-02   0.000e+00
   1.580e-02  -7.375e-03   0.000e+00
  -3.030e-02  -7.256e-02   0.000e+00
   2.806e-01   1.855e-01   0.000e+00
   4.064e-01  -4.692e-02   0.000e+00
  -3.357e-01   3.175e-01   0.000e+00
   1.630e-01  -4.259e-01   0.000e+00
   6.600e-02  -2.335e-01   0.000e+00
  -2.008e-01   1.459e-01   0.000e+00
  -5.343e-02   1.123e-01   0.000e+00
  -8.414e-02   5.747e-02   0.000e+00
  -2.307e-02   5.579e-02   0.000e+00
  -1.871e-01  -3.705e-02   0.000e+00
  -1.106e-01  -4.372e-02   0.000e+00
  -1.548e-01   1.498e-01   0.000e+00
  -1.218e-01   1.035e-01   0.000e+00
  -1.280e-01  -1.326e-01   0.000e+00
  -2.130e-01  -1.037e-01   0.000e+00
  -1.505e-01   2.739e-02   0.000e+00
  -7.325e-02   1.443e-02   0.000e+00
   4.886e-02  -8.260e-02   0.000e+00
  -3.089e-02  -5.771e-02   0.000e+00
  -1.110e-01   8.207e-02   0.000e+00
  -3.340e-02  -3.850e-02   0.000e+00
  -1.037e-01  -3.270e-02   0.000e+00
  -8.668e-02  -2.256e-02   0.000e+00
  -1.155e-01   1.559e-02   0.000e+00
  -2.173e-01   4.703e-02   0.000e+00
   4.708e-02   4.431e-02   0.000e+00
   9.813e-02  -5.851e-03   0.000e+00
  -6.737e-03   2.034e-01   0.000e+00
   1.608e-01   2.214e-01   0.000e+00
   1.634e-01  -3.678e-01   0.000e+00
  -4.860e-02  -7.558e-02   0.000e+00
  -1.023e-01  -2.944e-01   0.000e+00
  -1.652e-01  -1.622e-01   0.000e+00
   1.515e-01   1.153e-01   0.000e+00
   2.220e-01  -1.888e-01   0.000e+00
  -7.406e-02  -1.962e-02   0.000e+00
  -1.438e-01  -7.386e-02   0.000e+00
   8.951e-02  -3.462e-02   0.000e+00
  -1.268e-01  -3.674e-02   0.000e+00
  -4.343e-02  -3.133e-01   0.000e+00
  -7.803e-02  -1.673e-01   0.000e+00
  -1.286e-01  -3.407e-02   0.000e+00
  -1.074e-01  -5.285e-02   0.000e+00
  -9.251e-02  -7.777e-02   0.000e+00
  -1.024e-01  -4.357e-02   0.000e+00
   1.477e-02   3.842e-02   0.000e+00
   2.739e-02   7.443e-02   0.000e+00
  -5.089e-02  -4.959e-03   0.000e+00
  -2.706e-02   1.381e-02   0.000e+00
   1.397e-01   1.484e-01   0.000e+00
   3.000e-01   1.344e-01   0.000e+00
   9.430e-02   4.152e-02   0.000e+00
   4.599e-02   9.413e-02   0.000e+00
   3.079e-01  -1.450e-01   0.000e+00
   2.199e-01  -2.195e-01   0.000e+00
  -1.372e-01   6.390e-02   0.000e+00
  -1.215e-02   6.230e-02   0.000e+00
  -5.275e-02   1.138e-01   0.000e+00
  -2.435e-02   1.784e-02   0.000e+00
  -1.015e-01  -3.833e-02   0.000e+00
  -7.489e-02  -5.165e-02   0.000e+00
  -1.106e-01   7.436e-03   0.000e+00
  -9.471e-02  -2.327e-02   0.000e+00
   5.158e-02   1.232e-01   0.000e+00
  -6.867e-02   5.081e-02   0.000e+00
  -1.439e-01  -2.663e-01   0.000e+00
  -1.187e-01  -1.034e-01   0.000e+00
  -1.877e-02  -5.114e-02   0.000e+00
   1.294e-02   4.249e-02   0.000e+00
  -2.728e-02  -4.508e-03   0.000e+00
  -3.412e-02   3.715e-02   0.000e+00
   1.631e-01  -3.209e-02   0.000e+00
   9.401e-02  -1.348e-01   0.000e+00
  -1.505e-01  -3.057e-04   0.000e+00
  -1.615e-01   5.997e-02   0.000e+00
   6.765e-02  -3.143e-01   0.000e+00
   1.165e-03  -1.993e-01   0.000e+00
  -9.871e-02  -6.529e-02   0.000e+00
  -7.212e-02   1.906e-02   0.000e+00
  -1.334e-01  -4.141e-02   0.000e+00
  -1.491e-01  -4.915e-03   0.000e+00
  -8.470e-02  -1.897e-01   0.000e+00
  -9.170e-02  -5.558e-02   0.000e+00
  -5.316e-02  -9.667e-03   0.000e+00
  -3.073e-02   2.256e-02   0.000e+00
  -2.938e-02  -9.913e-03   0.000e+00
  -6.988e-02   4.697e-02   0.000e+00
  -1.050e-01  -3.307e-02   0.000e+00
  -1.058e-01  -3.858e-02   0.000e+00
  -2.203e-02   4.239e-02   0.000e+00
  -9.875e-03   2.054e-02   0.000e+00
  -9.563e-02  -4.406e-02   0.000e+00
  -1.094e-01  -2.337e-02   0.000e+00
  -1.121e-01  -1.539e-02   0.000e+00
  -1.113e-01   3.706e-02   0.000e+00
   2.883e-02  -1.072e-01   0.000e+00
   1.082e-03  -1.464e-01   0.000e+00
  -2.718e-02  -7.448e-02   0.000e+00
   4.526e-02  -3.618e-02   0.000e+00
  -1.410e-02   1.361e-02   0.000e+00
  -4.113e-02   1.198e-02   0.000e+00
  -7.066e-02  -1.062e-01   0.000e+00
  -3.885e-02  -3.768e-02   0.000e+00
  -8.137e-03   1.422e-03   0.000e+00
   2.510e-02   3.110e-03   0.000e+00
  -9.454e-02  -3.195e-02   0.000e+00
  -4.159e-02   2.827e-02   0.000e+00
   2.717e-02  -8.427e-02   0.000e+00
  -3.499e-02  -1.292e-01   0.000e+00
  -8.210e-02  -5.790e-02   0.000e+00
  -8.800e-02  -3.430e-02   0.000e+00
  -5.595e-02  -3.843e-02   0.000e+00
   7.712e-05  -4.652e-02   0.000e+00
  -7.761e-02   2.558e-03   0.000e+00
  -5.276e-02  -9.688e-03   0.000e+00
  -3.877e-02   1.155e-02   0.000e+00
  -2.388e-02  -9.733e-03   0.000e+00
  -9.475e-02  -2.902e-02   0.000e+00
  -9.647e-02  -1.142e-03   0.000e+00
   1.487e-01  -1.109e-01   0.000e+00
   9.392e-02  -1.367e-01   0.000e+00
  -5.631e-02  -4.070e-02   0.000e+00
  -7.368e-02  -3.050e-02   0.000e+00

POINT_DATA 1532
VECTORS displacement float
   0.000e+00   0.000e+00   0.000e+00
   0.000e+00   0.000e+00   0.000e+00
   0.000e+00   0.000e+00   0.000e+00
   0.000e+00   0.000e+00   0.000e+00
   0.000e+00   0.000e+00   0.000e+00
   0.000e+00   0.000e+00   0.000e+00
   0.000e+00   0.000e+00   0.000e+00
   0.000e+00   0.000e+00   0.000e+00
   0.000e+00   0.000e+00   0.000e+00
   0.000e+00   0.000e+00   0.000e+00
   0.000e+00   0.000e+00   0.000e+00
   0.000e+00   0.000e+00   0.000e+00
   0.000e+00   0.000e+00   0.000e+00
   0.000e+00   0.000e+00   0.000e+00
   0.000e+00   0.000e+00   0.000e+00
   0.000e+00   0.000e+00   0.000e+00
   0.000e+00   0.000e+00   0.000e+00
   0.000e+00   0.000e+00   0.000e+00
   0.000e+00   0.000e+00   0.000e+00
   0.000e+00   0.000e+00   0.000e+00
   0.000e+00   0.000e+00   0.000e+00
   0.000e+00   0.000e+00   0.000e+00
   0.000e+00   0.000e+00   0.000e+00
   0.000e+00   0.000e+00   0.000e+00
   0.000e+00   0.000e+00   0.000e+00
   0.000e+00   0.000e+00   0.000e+00
   0.000e+00   0.000e+00   0.000e+00
   0.000e+00   0.000e+00   0.000e+00
   0.000e+00   0.000e+00   0.000e+00
   0.000e+00   0.000e+00   0.000e+00
   0.000e+00   0.000e+00   0.000e+00
   0.000e+00   0.000e+00   0.000e+00
   0.000e+00   0.000e+00   0.000e+00
   0.000e+00   0.000e+00   0.000e+00
   0.000e+00   0.000e+00   0.000e+00
   0.000e+00   0.000e+00   0.000e+00
   0.000e+00   0.000e+00   0.000e+00
   0.000e+00   0.000e+00   0.000e+00
   0.000e+00   0.000e+00   0.000e+00
   0.000e+00   0.000e+00   0.000e+00
   0.000e+00   0.000e+00   0.000e+00
   0.000e+00   0.000e+00   0.000e+00
   0.000e+00   0.000e+00   0.000e+00
   0.000e+00   0.000e+00   0.000e+00
   0.000e+00   0.000e+00   0.000e+00
   0.000e+00   0.000e+00   0.000e+00
   0.000e+00   0.000e+00   0.000e+00
   0.000e+00   0.000e+00   0.000e+00
   0.000e+00   0.000e+00   0.000e+00
   0.000e+00   0.000e+00   0.000e+00
   0.000e+00   0.000e+00   0.000e+00
   0.000e+00   0.000e+00   0.000e+00
   0.000e+00   0.000e+00   0.000e+00
   0.000e+00   0.000e+00   0.000e+00
   0.000e+00   0.000e+00   0.000e+00
   0.000e+00   0.000e+00   0.000e+00
   0.000e+00   0.000e+00   0.000e+00
   0.000e+00   0.000e+00   0.000e+00
   0.000e+00   0.000e+00   0.000e+00
   0.000e+00   0.000e+00   0.000e+00
   0.000e+00   0.000e+00   0.000e+00
   0.000e+00   0.000e+00   0.000e+00
   0.000e+00   0.000e+00   0.000e+00
   0.000e+00   0.000e+00   0.000e+00
   0.000e+00   0.000e+00   0.000e+00
   0.000e+00   0.000e+00   0.000e+00
   0.000e+00   0.000e+00   0.000e+00
   0.000e+00   0.000e+00   0.000e+00
   0.000e+00   0.000e+00   0.000e+00
   0.000e+00   0.000e+00   0.000e+00
   0.000e+00   0.000e+00   0.000e+00
   0.000e+00   0.000e+00   0.000e+00
   0.000e+00   0.000e+00   0.000e+00
   0.000e+00   0.000e+00   0.000e+00
   0.000e+00   0.000e+00   0.000e+00
   0.000e+00   0.000e+00   0.000e+00
   0.000e+00   0.000e+00   0.000e+00
   0.000e+00   0.000e+00   0.000e+00
   0.000e+00   0.000e+00   0.000e+00
   0.000e+00   0.000e+00   0.000e+00
   0.000e+00   0.000e+00   0.000e+00
   0.000e+00   0.000e+00   0.000e+00
   0.000e+00   0.000e+00   0.000e+00
   0.000e+00   0.000e+00   0.000e+00
   0.000e+00   0.000e+00   0.000e+00
   0.000e+00   0.000e+00   0.000e+00
   0.000e+00   0.000e+00   0.000e+00
   0.000e+00   0.000e+00   0.000e+00
   0.000e+00   0.000e+00   0.000e+00
   0.000e+00   0.000e+00   0.000e+00
   0.000e+00   0.000e+00   0.000e+00
   0.000e+00   0.000e+00   0.000e+00
   0.000e+00   0.000e+00   0.000e+00
   0.000e+00   0.000e+00   0.000e+00
   0.000e+00   0.000e+00   0.000e+00
   0.000e+00   0.000e+00   0.000e+00
   0.000e+00   0.000e+00   0.000e+00
   0.000e+00   0.000e+00   0.000e+00
   0.000e+00   0.000e+00   0.000e+00
   0.000e+00   0.000e+00   0.000e+00
  -1.114e-01   0.000e+00   0.000e+00
  -1.195e-01   0.000e+00   0.000e+00
  -1.099e-01   0.000e+00   0.000e+00
  -9.669e-02   0.000e+00   0.000e+00
  -8.976e-02   0.000e+00   0.000e+00
  -8.345e-02   0.000e+00   0.000e+00
  -9.061e-02   0.000e+00   0.000e+00
  -1.209e-01   0.000e+00   0.000e+00
  -1.551e-01   0.000e+00   0.000e+00
  -1.840e-01   0.000e+00   0.000e+00
  -1.194e-01   0.000e+00   0.000e+00
  -1.435e-01   0.000e+00   0.000e+00
  -1.395e-01   0.000e+00   0.000e+00
  -1.370e-01   0.000e+00   0.000e+00
  -1.030e-01   0.000e+00   0.000e+00
  -1.108e-01   0.000e+00   0.000e+00
  -1.226e-01   0.000e+00   0.000e+00
  -1.343e-01   0.000e+00   0.000e+00
  -1.224e-01   0.000e+00   0.000e+00
  -1.046e-01   0.000e+00   0.000e+00
  -1.015e-01   0.000e+00   0.000e+00
  -9.846e-02   0.000e+00   0.000e+00
  -1.065e-01   0.000e+00   0.000e+00
  -9.236e-02   0.000e+00   0.000e+00
  -1.292e-01   0.000e+00   0.000e+00
  -1.338e-01   0.000e+00   0.000e+00
  -1.144e-01   0.000e+00   0.000e+00
  -1.398e-01   0.000e+00   0.000e+00
  -1.113e-01   0.000e+00   0.000e+00
  -1.431e-01   0.000e+00   0.000e+00
  -1.158e-01   0.000e+00   0.000e+00
  -1.318e-01   0.000e+00   0.000e+00
  -1.154e-01   0.000e+00   0.000e+00
  -8.650e-02   0.000e+00   0.000e+00
  -1.042e-01   0.000e+00   0.000e+00
  -1.022e-01   0.000e+00   0.000e+00
  -8.206e-02   0.000e+00   0.000e+00
  -9.243e-02   0.000e+00   0.000e+00
  -9.429e-02   0.000e+00   0.000e+00
  -9.513e-02   0.000e+00   0.000e+00
  -9.896e-02   0.000e+00   0.000e+00
  -1.003e-01   0.000e+00   0.000e+00
  -1.090e-01   0.000e+00   0.000e+00
  -8.777e-02   0.000e+00   0.000e+00
  -1.179e-01   0.000e+00   0.000e+00
  -1.131e-01   0.000e+00   0.000e+00
  -9.214e-02   0.000e+00   0.000e+00
  -1.199e-01   0.000e+00   0.000e+00
  -9.241e-02   0.000e+00   0.000e+00
  -1.037e-01   0.000e+00   0.000e+00
  -7.966e-02   0.000e+00   0.000e+00
  -9.893e-02   0.000e+00   0.000e+00
  -9.499e-02   0.000e+00   0.000e+00
  -7.584e-02   0.000e+00   0.000e+00
  -8.454e-02   0.000e+00   0.000e+00
  -6.665e-02   0.000e+00   0.000e+00
  -8.479e-02   0.000e+00   0.000e+00
  -6.995e-02   0.000e+00   0.000e+00
  -9.887e-02   0.000e+00   0.000e+00
  -9.956e-02   0.000e+00   0.000e+00
  -8.616e-02   0.000e+00   0.000e+00
  -1.348e-01   0.000e+00   0.000e+00
  -1.153e-01   0.000e+00   0.000e+00
  -1.669e-01   0.000e+00   0.000e+00
  -1.417e-01   0.000e+00   0.000e+00
  -1.074e-01   0.000e+00   0.000e+00
  -1.077e-01   0.000e+00   0.000e+00
  -1.084e-01   0.000e+00   0.000e+00
  -1.055e-01   0.000e+00   0.000e+00
  -8.617e-02   0.000e+00   0.000e+00
  -1.141e-01   0.000e+00   0.000e+00
  -9.451e-02   0.000e+00   0.000e+00
  -1.334e-01   0.000e+00   0.000e+00
  -1.343e-01   0.000e+00   0.000e+00
  -1.108e-01   0.000e+00   0.000e+00
  -1.321e-01   0.000e+00   0.000e+00
  -1.048e-01   0.000e+00   0.000e+00
  -1.126e-01   0.000e+00   0.000e+00
  -8.613e-02   0.000e+00   0.000e+00
  -1.077e-01   0.000e+00   0.000e+00
  -1.045e-01   0.000e+00   0.000e+00
  -8.450e-02   0.000e+00   0.000e+00
  -9.637e-02   0.000e+00   0.000e+00
  -7.678e-02   0.000e+00   0.000e+00
  -3.447e-01   0.000e+00   0.000e+00
  -1.482e-01   0.000e+00   0.000e+00
  -1.195e-01   0.000e+00   0.000e+00
  -2.408e-01   0.000e+00   0.000e+00
  -2.512e-01   0.000e+00   0.000e+00
  -3.055e-01   0.000e+00   0.000e+00
  -2.840e-01   0.000e+00   0.000e+00
  -1.005e-01   0.000e+00   0.000e+00
  -9.651e-02   0.000e+00   0.000e+00
  -9.647e-02   0.000e+00   0.000e+00
  -2.404e-01   0.000e+00   0.000e+00
  -2.798e-01   0.000e+00   0.000e+00
  -2.317e-01   0.000e+00   0.000e+00
  -1.994e-01   0.000e+00   0.000e+00
  -1.852e-01   0.000e+00   0.000e+00
  -1.813e-01   0.000e+00   0.000e+00
  -1.953e-01   0.000e+00   0.000e+00
  -2.869e-01   0.000e+00   0.000e+00
  -1.879e-01   0.000e+00   0.000e+00
  -1.755e-01   0.000e+00   0.000e+00
  -1.619e-01   0.000e+00   0.000e+00
  -1.370e-01   0.000e+00   0.000e+00
  -1.275e-01   0.000e+00   0.000e+00
  -1.140e-01   0.000e+00   0.000e+00
  -1.098e-01   0.000e+00   0.000e+00
  -2.620e-01   0.000e+00   0.000e+00
  -2.860e-01   0.000e+00   0.000e+00
  -2.166e-01   0.000e+00   0.000e+00
  -2.099e-01   0.000e+00   0.000e+00
  -2.981e-01   0.000e+00   0.000e+00
  -2.501e-01   0.000e+00   0.000e+00
  -1.949e-01   0.000e+00   0.000e+00
  -2.115e-01   0.000e+00   0.000e+00
  -2.364e-01   0.000e+00   0.000e+00
  -2.696e-01   0.000e+00   0.000e+00
  -2.992e-01   0.000e+00   0.000e+00
  -2.731e-01   0.000e+00   0.000e+00
  -3.050e-01   0.000e+00   0.000e+00
  -2.563e-01   0.000e+00   0.000e+00
  -2.142e-01   0.000e+00   0.000e+00
  -2.153e-01   0.000e+00   0.000e+00
  -2.055e-01   0.000e+00   0.000e+00
  -1.892e-01   0.000e+00   0.000e+00
  -1.912e-01   0.000e+00   0.000e+00
  -1.915e-01   0.000e+00   0.000e+00
  -1.072e-01   0.000e+00   0.000e+00
  -2.005e-01   0.000e+00   0.000e+00
  -2.219e-01   0.000e+00   0.000e+00
  -2.372e-01   0.000e+00   0.000e+00
  -2.270e-01   0.000e+00   0.000e+00
  -2.359e-01   0.000e+00   0.000e+00
  -1.959e-01   0.000e+00   0.000e+00
  -1.981e-01   0.000e+00   0.000e+00
  -1.966e-01   0.000e+00   0.000e+00
  -1.654e-01   0.000e+00   0.000e+00
  -1.748e-01   0.000e+00   0.000e+00
  -2.025e-01   0.000e+00   0.000e+00
  -2.090e-01   0.000e+00   0.000e+00
  -2.860e-01   0.000e+00   0.000e+00
  -3.555e-01   0.000e+00   0.000e+00
  -1.091e-01   0.000e+00   0.000e+00
  -2.164e-01   0.000e+00   0.000e+00
  -2.173e-01   0.000e+00   0.000e+00
  -2.136e-01   0.000e+00   0.000e+00
  -2.333e-01   0.000e+00   0.000e+00
  -2.766e-01   0.000e+00   0.000e+00
  -2.900e-01   0.000e+00   0.000e+00
  -2.744e-01   0.000e+00   0.000e+00
  -2.114e-01   0.000e+00   0.000e+00
  -2.167e-01   0.000e+00   0.000e+00
  -2.189e-01   0.000e+00   0.000e+00
  -1.867e-01   0.000e+00   0.000e+00
  -2.780e-01   0.000e+00   0.000e+00
  -3.026e-01   0.000e+00   0.000e+00
  -3.686e-01   0.000e+00   0.000e+00
  -1.932e-01   0.000e+00   0.000e+00
  -2.487e-01   0.000e+00   0.000e+00
  -5.823e-01   0.000e+00   0.000e+00
  -3.899e-01   0.000e+00   0.000e+00
  -4.335e-01   0.000e+00   0.000e+00
  -3.999e-01   0.000e+00   0.000e+00
  -4.044e-01   0.000e+00   0.000e+00
  -4.032e-01   0.000e+00   0.000e+00
  -4.702e-01   0.000e+00   0.000e+00
  -3.161e-01   0.000e+00   0.000e+00
  -3.435e-01   0.000e+00   0.000e+00
  -3.762e-01   0.000e+00   0.000e+00
  -2.442e-01   0.000e+00   0.000e+00
  -2.667e-01   0.000e+00   0.000e+00
  -2.229e-01   0.000e+00   0.000e+00
  -3.729e-01   0.000e+00   0.000e+00
  -2.249e-01   0.000e+00   0.000e+00
  -3.095e-01   0.000e+00   0.000e+00
  -4.171e-01   0.000e+00   0.000e+00
  -3.716e-01   0.000e+00   0.000e+00
  -4.147e-01   0.000e+00   0.000e+00
  -2.848e-01   0.000e+00   0.000e+00
  -3.411e-01   0.000e+00   0.000e+00
  -2.766e-01   0.000e+00   0.000e+00
  -2.982e-01   0.000e+00   0.000e+00
  -3.054e-01   0.000e+00   0.000e+00
  -4.471e-01   0.000e+00   0.000e+00
  -3.982e-01   0.000e+00   0.000e+00
  -3.139e-01   0.000e+00   0.000e+00
  -2.889e-01   0.000e+00   0.000e+00
  -2.358e-01   0.000e+00   0.000e+00
  -2.162e-01   0.000e+00   0.000e+00
  -3.895e-01   0.000e+00   0.000e+00
  -3.102e-01   0.000e+00   0.000e+00
  -3.379e-01   0.000e+00   0.000e+00
  -4.781e-01   0.000e+00   0.000e+00
  -4.051e-01   0.000e+00   0.000e+00
  -3.144e-01   0.000e+00   0.000e+00
  -3.723e-01   0.000e+00   0.000e+00
  -4.966e-01   0.000e+00   0.000e+00
  -4.603e-01   0.000e+00   0.000e+00
  -2.041e-01   0.000e+00   0.000e+00
  -2.034e-01   0.000e+00   0.000e+00
  -1.942e-01   0.000e+00   0.000e+00
  -1.892e-01   0.000e+00   0.000e+00
  -2.902e-01   0.000e+00   0.000e+00
  -2.932e-01   0.000e+00   0.000e+00
  -1.934e-01   0.000e+00   0.000e+00
  -3.799e-01   0.000e+00   0.000e+00
  -3.929e-01   0.000e+00   0.000e+00
  -3.243e-01   0.000e+00   0.000e+00
  -3.625e-01   0.000e+00   0.000e+00
  -4.989e-01   0.000e+00   0.000e+00
  -3.442e-01   0.000e+00   0.000e+00
  -2.174e-01   0.000e+00   0.000e+00
  -3.436e-01   0.000e+00   0.000e+00
  -3.712e-01   0.000e+00   0.000e+00
  -4.813e-01   0.000e+00   0.000e+00
  -3.347e-01   0.000e+00   0.000e+00
  -3.601e-01   0.000e+00   0.000e+00
  -4.044e-01   0.000e+00   0.000e+00
  -4.449e-01   0.000e+00   0.000e+00
  -5.698e-01   0.000e+00   0.000e+00
  -2.914e-01   0.000e+00   0.000e+00
  -4.280e-01   0.000e+00   0.000e+00
  -2.893e-01   0.000e+00   0.000e+00
  -3.635e-01   0.000e+00   0.000e+00
  -6.348e-01   0.000e+00   0.000e+00
  -3.432e-01   0.000e+00   0.000e+00
  -4.872e-01   0.000e+00   0.000e+00
  -3.785e-01   0.000e+00   0.000e+00
  -4.350e-01   0.000e+00   0.000e+00
  -3.469e-01   0.000e+00   0.000e+00
  -3.838e-01   0.000e+00   0.000e+00
  -5.188e-01   0.000e+00   0.000e+00
  -3.626e-01   0.000e+00   0.000e+00
  -4.892e-01   0.000e+00   0.000e+00
  -2.976e-01   0.000e+00   0.000e+00
  -4.088e-01   0.000e+00   0.000e+00
  -4.475e-01   0.000e+00   0.000e+00
  -2.952e-01   0.000e+00   0.000e+00
  -6.328e-01   0.000e+00   0.000e+00
  -4.453e-01   0.000e+00   0.000e+00
  -3.358e-01   0.000e+00   0.000e+00
  -2.696e-01   0.000e+00   0.000e+00
  -5.529e-01   0.000e+00   0.000e+00
  -3.016e-01   0.000e+00   0.000e+00
  -4.919e-01   0.000e+00   0.000e+00
  -5.407e-01   0.000e+00   0.000e+00
  -3.111e-01   0.000e+00   0.000e+00
  -3.858e-01   0.000e+00   0.000e+00
  -3.361e-01   0.000e+00   0.000e+00
  -5.973e-01   0.000e+00   0.000e+00
  -5.015e-01   0.000e+00   0.000e+00
  -3.315e-01   0.000e+00   0.000e+00
  -5.597e-01   0.000e+00   0.000e+00
  -3.072e-01   0.000e+00   0.000e+00
  -4.067e-01   0.000e+00   0.000e+00
  -4.130e-01   0.000e+00   0.000e+00
  -4.548e-01   0.000e+00   0.000e+00
  -4.165e-01   0.000e+00   0.000e+00
  -3.091e-01   0.000e+00   0.000e+00
  -5.603e-01   0.000e+00   0.000e+00
  -4.519e-01   0.000e+00   0.000e+00
  -5.173e-01   0.000e+00   0.000e+00
  -4.291e-01   0.000e+00   0.000e+00
  -5.899e-01   0.000e+00   0.000e+00
  -3.059e-01   0.000e+00   0.000e+00
  -2.910e-01   0.000e+00   0.000e+00
  -2.859e-01   0.000e+00   0.000e+00
  -3.781e-01   0.000e+00   0.000e+00
  -5.457e-01   0.000e+00   0.000e+00
  -7.311e-01   0.000e+00   0.000e+00
  -3.109e-01   0.000e+00   0.000e+00
  -3.529e-01   0.000e+00   0.000e+00
  -5.320e-01   0.000e+00   0.000e+00
  -4.390e-01   0.000e+00   0.000e+00
  -4.409e-01   0.000e+00   0.000e+00
  -3.337e-01   0.000e+00   0.000e+00
  -3.961e-01   0.000e+00   0.000e+00
  -4.365e-01   0.000e+00   0.000e+00
  -6.630e-01   0.000e+00   0.000e+00
  -4.168e-01   0.000e+00   0.000e+00
  -4.124e-01   0.000e+00   0.000e+00
  -5.121e-01   0.000e+00   0.000e+00
  -5.867e-01   0.000e+00   0.000e+00
  -4.145e-01   0.000e+00   0.000e+00
  -7.116e-01   0.000e+00   0.000e+00
  -5.154e-01   0.000e+00   0.000e+00
  -6.548e-01   0.000e+00   0.000e+00
  -7.347e-01   0.000e+00   0.000e+00
  -5.623e-01   0.000e+00   0.000e+00
  -5.749e-01   0.000e+00   0.000e+00
  -5.710e-01   0.000e+00   0.000e+00
  -4.271e-01   0.000e+00   0.000e+00
  -5.058e-01   0.000e+00   0.000e+00
  -5.711e-01   0.000e+00   0.000e+00
  -5.020e-01   0.000e+00   0.000e+00
  -4.900e-01   0.000e+00   0.000e+00
  -4.556e-01   0.000e+00   0.000e+00
  -6.172e-01   0.000e+00   0.000e+00
  -3.280e-01   0.000e+00   0.000e+00
  -4.860e-01   0.000e+00   0.000e+00
  -7.346e-01   0.000e+00   0.000e+00
  -7.143e-01   0.000e+00   0.000e+00
  -6.170e-01   0.000e+00   0.000e+00
  -4.066e-01   0.000e+00   0.000e+00
  -7.195e-01   0.000e+00   0.000e+00
  -3.551e-01   0.000e+00   0.000e+00
  -5.997e-01   0.000e+00   0.000e+00
  -4.676e-01   0.000e+00   0.000e+00
  -4.799e-01   0.000e+00   0.000e+00
  -4.524e-01   0.000e+00   0.000e+00
  -7.144e-01   0.000e+00   0.000e+00
  -3.790e-01   0.000e+00   0.000e+00
  -3.920e-01   0.000e+00   0.000e+00
  -3.962e-01   0.000e+00   0.000e+00
  -4.852e-01   0.000e+00   0.000e+00
  -4.592e-01   0.000e+00   0.000e+00
  -6.336e-01   0.000e+00   0.000e+00
  -5.909e-01   0.000e+00   0.000e+00
  -6.500e-01   0.000e+00   0.000e+00
  -3.769e-01   0.000e+00   0.000e+00
  -4.401e-01   0.000e+00   0.000e+00
  -4.518e-01   0.000e+00   0.000e+00
  -3.916e-01   0.000e+00   0.000e+00
  -5.206e-01   0.000e+00   0.000e+00
  -4.364e-01   0.000e+00   0.000e+00
  -7.625e-01   0.000e+00   0.000e+00
  -6.057e-01   0.000e+00   0.000e+00
  -7.178e-01   0.000e+00   0.000e+00
  -3.962e-01   0.000e+00   0.000e+00
  -3.712e-01   0.000e+00   0.000e+00
  -5.289e-01   0.000e+00   0.000e+00
  -5.851e-01   0.000e+00   0.000e+00
  -7.217e-01   0.000e+00   0.000e+00
  -7.060e-01   0.000e+00   0.000e+00
  -4.731e-01   0.000e+00   0.000e+00
  -6.241e-01   0.000e+00   0.000e+00
  -4.584e-01   0.000e+00   0.000e+00
  -7.027e-01   0.000e+00   0.000e+00
  -4.751e-01   0.000e+00   0.000e+00
  -5.374e-01   0.000e+00   0.000e+00
  -5.714e-01   0.000e+00   0.000e+00
  -8.305e-01   0.000e+00   0.000e+00
  -5.685e-01   0.000e+00   0.000e+00
  -5.320e-01   0.000e+00   0.000e+00
  -5.343e-01   0.000e+00   0.000e+00
  -8.430e-01   0.000e+00   0.000e+00
  -8.383e-01   0.000e+00   0.000e+00
  -4.743e-01   0.000e+00   0.000e+00
  -5.656e-01   0.000e+00   0.000e+00
  -7.515e-01   0.000e+00   0.000e+00
  -6.649e-01   0.000e+00   0.000e+00
  -6.649e-01   0.000e+00   0.000e+00
  -5.728e-01   0.000e+00   0.000e+00
  -5.508e-01   0.000e+00   0.000e+00
  -8.073e-01   0.000e+00   0.000e+00
  -4.987e-01   0.000e+00   0.000e+00
  -9.232e-01   0.000e+00   0.000e+00
  -5.120e-01   0.000e+00   0.000e+00
  -4.324e-01   0.000e+00   0.000e+00
  -8.083e-01   0.000e+00   0.000e+00
  -6.611e-01   0.000e+00   0.000e+00
  -7.511e-01   0.000e+00   0.000e+00
  -6.867e-01   0.000e+00   0.000e+00
  -5.669e-01   0.000e+00   0.000e+00
  -4.813e-01   0.000e+00   0.000e+00
  -7.540e-01   0.000e+00   0.000e+00
  -8.577e-01   0.000e+00   0.000e+00
  -5.479e-01   0.000e+00   0.000e+00
  -4.473e-01   0.000e+00   0.000e+00
  -5.652e-01   0.000e+00   0.000e+00
  -5.472e-01   0.000e+00   0.000e+00
  -6.322e-01   0.000e+00   0.000e+00
  -6.051e-01   0.000e+00   0.000e+00
  -8.405e-01   0.000e+00   0.000e+00
  -5.048e-01   0.000e+00   0.000e+00
  -5.065e-01   0.000e+00   0.000e+00
  -5.894e-01   0.000e+00   0.000e+00
  -5.540e-01   0.000e+00   0.000e+00
  -7.175e-01   0.000e+00   0.000e+00
  -5.863e-01   0.000e+00   0.000e+00
  -7.195e-01   0.000e+00   0.000e+00
  -8.664e-01   0.000e+00   0.000e+00
  -8.436e-01   0.000e+00   0.000e+00
  -4.695e-01   0.000e+00   0.000e+00
  -6.627e-01   0.000e+00   0.000e+00
  -5.183e-01   0.000e+00   0.000e+00
  -7.210e-01   0.000e+00   0.000e+00
  -6.682e-01   0.000e+00   0.000e+00
  -8.167e-01   0.000e+00   0.000e+00
  -7.995e-01   0.000e+00   0.000e+00
  -6.237e-01   0.000e+00   0.000e+00
  -8.229e-01   0.000e+00   0.000e+00
  -5.880e-01   0.000e+00   0.000e+00
  -9.671e-01   0.000e+00   0.000e+00
  -4.297e-01   0.000e+00   0.000e+00
  -8.495e-01   0.000e+00   0.000e+00
  -6.467e-01   0.000e+00   0.000e+00
  -7.024e-01   0.000e+00   0.000e+00
  -5.846e-01   0.000e+00   0.000e+00
  -9.518e-01   0.000e+00   0.000e+00
  -5.043e-01   0.000e+00   0.000e+00
  -6.809e-01   0.000e+00   0.000e+00
  -6.767e-01   0.000e+00   0.000e+00
  -4.749e-01   0.000e+00   0.000e+00
  -7.221e-01   0.000e+00   0.000e+00
  -9.145e-01   0.000e+00   0.000e+00
  -8.690e-01   0.000e+00   0.000e+00
  -7.675e-01   0.000e+00   0.000e+00
  -6.889e-01   0.000e+00   0.000e+00
  -8.415e-01   0.000e+00   0.000e+00
  -7.455e-01   0.000e+00   0.000e+00
  -5.989e-01   0.000e+00   0.000e+00
  -6.263e-01   0.000e+00   0.000e+00
  -5.404e-01   0.000e+00   0.000e+00
  -6.805e-01   0.000e+00   0.000e+00
  -6.837e-01   0.000e+00   0.000e+00
  -9.119e-01   0.000e+00   0.000e+00
  -6.847e-01   0.000e+00   0.000e+00
  -8.912e-01   0.000e+00   0.000e+00
  -6.811e-01   0.000e+00   0.000e+00
  -5.670e-01   0.000e+00   0.000e+00
  -5.897e-01   0.000e+00   0.000e+00
  -8.213e-01   0.000e+00   0.000e+00
  -8.752e-01   0.000e+00   0.000e+00
  -5.395e-01   0.000e+00   0.000e+00
  -5.649e-01   0.000e+00   0.000e+00
  -6.055e-01   0.000e+00   0.000e+00
  -5.567e-01   0.000e+00   0.000e+00
  -7.320e-01   0.000e+00   0.000e+00
  -9.372e-01   0.000e+00   0.000e+00
  -9.370e-01   0.000e+00   0.000e+00
  -9.294e-01   0.000e+00   0.000e+00
  -6.139e-01   0.000e+00   0.000e+00
  -5.129e-01   0.000e+00   0.000e+00
  -7.172e-01   0.000e+00   0.000e+00
  -8.032e-01   0.000e+00   0.000e+00
  -9.299e-01   0.000e+00   0.000e+00
  -9.021e-01   0.000e+00   0.000e+00
  -7.831e-01   0.000e+00   0.000e+00
  -7.474e-01   0.000e+00   0.000e+00
  -9.620e-01   0.000e+00   0.000e+00
  -7.086e-01   0.000e+00   0.000e+00
  -8.544e-01   0.000e+00   0.000e+00
  -8.281e-01   0.000e+00   0.000e+00
  -8.479e-01   0.000e+00   0.000e+00
  -9.418e-01   0.000e+00   0.000e+00
  -6.851e-01   0.000e+00   0.000e+00
  -7.518e-01   0.000e+00   0.000e+00
  -6.760e-01   0.000e+00   0.000e+00
  -8.833e-01   0.000e+00   0.000e+00
  -1.036e+00   0.000e+00   0.000e+00
  -6.038e-01   0.000e+00   0.000e+00
  -9.642e-01   0.000e+00   0.000e+00
  -9.460e-01   0.000e+00   0.000e+00
  -1.012e+00   0.000e+00   0.000e+00
  -9.351e-01   0.000e+00   0.000e+00
  -9.294e-01   0.000e+00   0.000e+00
  -8.179e-01   0.000e+00   0.000e+00
  -1.044e+00   0.000e+00   0.000e+00
  -7.519e-01   0.000e+00   0.000e+00
  -6.887e-01   0.000e+00   0.000e+00
  -8.176e-01   0.000e+00   0.000e+00
  -5.861e-01   0.000e+00   0.000e+00
  -8.598e-01   0.000e+00   0.000e+00
  -8.865e-01   0.000e+00   0.000e+00
  -8.087e-01   0.000e+00   0.000e+00
  -8.954e-01   0.000e+00   0.000e+00
  -1.041e+00   0.000e+00   0.000e+00
  -7.430e-01   0.000e+00   0.000e+00
  -6.877e-01   0.000e+00   0.000e+00
  -6.858e-01   0.000e+00   0.000e+00
  -8.097e-01   0.000e+00   0.000e+00
  -6.856e-01   0.000e+00   0.000e+00
  -8.410e-01   0.000e+00   0.000e+00
  -7.140e-01   0.000e+00   0.000e+00
  -6.771e-01   0.000e+00   0.000e+00
  -6.250e-01   0.000e+00   0.000e+00
  -6.814e-01   0.000e+00   0.000e+00
  -8.956e-01   0.000e+00   0.000e+00
  -7.373e-01   0.000e+00   0.000e+00
  -1.050e+00   0.000e+00   0.000e+00
  -1.032e+00   0.000e+00   0.000e+00
  -5.599e-01   0.000e+00   0.000e+00
  -5.841e-01   0.000e+00   0.000e+00
  -8.663e-01   0.000e+00   0.000e+00
  -1.033e+00   0.000e+00   0.000e+00
  -9.291e-01   0.000e+00   0.000e+00
  -9.745e-01   0.000e+00   0.000e+00
  -6.901e-01   0.000e+00   0.000e+00
  -7.234e-01   0.000e+00   0.000e+00
  -1.107e+00   0.000e+00   0.000e+00
  -6.488e-01   0.000e+00   0.000e+00
  -1.027e+00   0.000e+00   0.000e+00
  -1.002e+00   0.000e+00   0.000e+00
  -9.788e-01   0.000e+00   0.000e+00
  -1.150e+00   0.000e+00   0.000e+00
  -9.233e-01   0.000e+00   0.000e+00
  -1.013e+00   0.000e+00   0.000e+00
  -8.101e-01   0.000e+00   0.000e+00
  -8.864e-01   0.000e+00   0.000e+00
  -6.406e-01   0.000e+00   0.000e+00
  -9.896e-01   0.000e+00   0.000e+00
  -9.828e-01   0.000e+00   0.000e+00
  -1.044e+00   0.000e+00   0.000e+00
  -9.447e-01   0.000e+00   0.000e+00
  -9.927e-01   0.000e+00   0.000e+00
  -1.029e+00   0.000e+00   0.000e+00
  -1.036e+00   0.000e+00   0.000e+00
  -1.123e+00   0.000e+00   0.000e+00
  -8.838e-01   0.000e+00   0.000e+00
  -9.989e-01   0.000e+00   0.000e+00
  -9.186e-01   0.000e+00   0.000e+00
  -1.059e+00   0.000e+00   0.000e+00
  -7.853e-01   0.000e+00   0.000e+00
  -8.553e-01   0.000e+00   0.000e+00
  -8.427e-01   0.000e+00   0.000e+00
  -8.570e-01   0.000e+00   0.000e+00
  -1.039e+00   0.000e+00   0.000e+00
  -8.082e-01   0.000e+00   0.000e+00
  -6.705e-01   0.000e+00   0.000e+00
  -7.765e-01   0.000e+00   0.000e+00
  -7.772e-01   0.000e+00   0.000e+00
  -8.009e-01   0.000e+00   0.000e+00
  -8.077e-01   0.000e+00   0.000e+00
  -8.004e-01   0.000e+00   0.000e+00
  -8.015e-01   0.000e+00   0.000e+00
  -1.008e+00   0.000e+00   0.000e+00
  -1.111e+00   0.000e+00   0.000e+00
  -6.351e-01   0.000e+00   0.000e+00
  -9.601e-01   0.000e+00   0.000e+00
  -1.018e+00   0.000e+00   0.000e+00
  -9.838e-01   0.000e+00   0.000e+00
  -1.081e+00   0.000e+00   0.000e+00
  -9.170e-01   0.000e+00   0.000e+00
  -9.623e-01   0.000e+00   0.000e+00
  -1.079e+00   0.000e+00   0.000e+00
  -1.011e+00   0.000e+00   0.000e+00
  -1.002e+00   0.000e+00   0.000e+00
  -1.114e+00   0.000e+00   0.000e+00
  -8.172e-01   0.000e+00   0.000e+00
  -9.256e-01   0.000e+00   0.000e+00
  -8.697e-01   0.000e+00   0.000e+00
  -1.111e+00   0.000e+00   0.000e+00
  -1.122e+00   0.000e+00   0.000e+00
  -9.134e-01   0.000e+00   0.000e+00
  -1.021e+00   0.000e+00   0.000e+00
  -9.061e-01   0.000e+00   0.000e+00
  -8.527e-01   0.000e+00   0.000e+00
  -1.100e+00   0.000e+00   0.000e+00
  -1.013e+00   0.000e+00   0.000e+00
  -7.274e-01   0.000e+00   0.000e+00
  -1.122e+00   0.000e+00   0.000e+00
  -8.631e-01   0.000e+00   0.000e+00
  -9.072e-01   0.000e+00   0.000e+00
  -1.092e+00   0.000e+00   0.000e+00
  -7.603e-01   0.000e+00   0.000e+00
  -7.515e-01   0.000e+00   0.000e+00
  -1.103e+00   0.000e+00   0.000e+00
  -1.071e+00   0.000e+00   0.000e+00
  -1.180e+00   0.000e+00   0.000e+00
  -1.043e+00   0.000e+00   0.000e+00
  -1.034e+00   0.000e+00   0.000e+00
  -9.990e-01   0.000e+00   0.000e+00
  -1.144e+00   0.000e+00   0.000e+00
  -8.398e-01   0.000e+00   0.000e+00
  -8.130e-01   0.000e+00   0.000e+00
  -9.239e-01   0.000e+00   0.000e+00
  -7.789e-01   0.000e+00   0.000e+00
  -1.114e+00   0.000e+00   0.000e+00
  -7.015e-01   0.000e+00   0.000e+00
  -9.995e-01   0.000e+00   0.000e+00
  -1.108e+00   0.000e+00   0.000e+00
  -1.126e+00   0.000e+00   0.000e+00
  -1.071e+00   0.000e+00   0.000e+00
  -1.210e+00   0.000e+00   0.000e+00
  -1.081e+00   0.000e+00   0.000e+00
  -1.193e+00   0.000e+00   0.000e+00
  -1.075e+00   0.000e+00   0.000e+00
  -8.848e-01   0.000e+00   0.000e+00
  -8.810e-01   0.000e+00   0.000e+00
  -1.007e+00   0.000e+00   0.000e+00
  -1.211e+00   0.000e+00   0.000e+00
  -9.840e-01   0.000e+00   0.000e+00
  -9.580e-01   0.000e+00   0.000e+00
  -1.187e+00   0.000e+00   0.000e+00
  -1.085e+00   0.000e+00   0.000e+00
  -1.016e+00   0.000e+00   0.000e+00
  -1.176e+00   0.000e+00   0.000e+00
  -1.018e+00   0.000e+00   0.000e+00
  -9.361e-01   0.000e+00   0.000e+00
  -1.006e+00   0.000e+00   0.000e+00
  -1.136e+00   0.000e+00   0.000e+00
  -9.972e-01   0.000e+00   0.000e+00
  -1.172e+00   0.000e+00   0.000e+00
  -1.241e+00   0.000e+00   0.000e+00
  -1.194e+00   0.000e+00   0.000e+00
  -9.594e-01   0.000e+00   0.000e+00
  -1.078e+00   0.000e+00   0.000e+00
  -1.118e+00   0.000e+00   0.000e+00
  -8.395e-01   0.000e+00   0.000e+00
  -8.550e-01   0.000e+00   0.000e+00
  -1.149e+00   0.000e+00   0.000e+00
  -1.263e+00   0.000e+00   0.000e+00
  -1.191e+00   0.000e+00   0.000e+00
  -1.020e+00   0.000e+00   0.000e+00
  -1.061e+00   0.000e+00   0.000e+00
  -8.533e-01   0.000e+00   0.000e+00
  -8.683e-01   0.000e+00   0.000e+00
  -1.116e+00   0.000e+00   0.000e+00
  -9.602e-01   0.000e+00   0.000e+00
  -1.044e+00   0.000e+00   0.000e+00
  -1.173e+00   0.000e+00   0.000e+00
  -1.138e+00   0.000e+00   0.000e+00
  -9.861e-01   0.000e+00   0.000e+00
  -1.082e+00   0.000e+00   0.000e+00
  -1.174e+00   0.000e+00   0.000e+00
  -9.583e-01   0.000e+00   0.000e+00
  -1.117e+00   0.000e+00   0.000e+00
  -9.541e-01   0.000e+00   0.000e+00
  -1.093e+00   0.000e+00   0.000e+00
  -1.141e+00   0.000e+00   0.000e+00
  -1.049e+00   0.000e+00   0.000e+00
  -1.133e+00   0.000e+00   0.000e+00
  -9.548e-01   0.000e+00   0.000e+00
  -9.500e-01   0.000e+00   0.000e+00
  -1.122e+00   0.000e+00   0.000e+00
  -1.252e+00   0.000e+00   0.000e+00
  -1.227e+00   0.000e+00   0.000e+00
  -9.945e-01   0.000e+00   0.000e+00
  -1.201e+00   0.000e+00   0.000e+00
  -1.083e+00   0.000e+00   0.000e+00
  -1.272e+00   0.000e+00   0.000e+00
  -1.177e+00   0.000e+00   0.000e+00
  -8.755e-01   0.000e+00   0.000e+00
  -9.553e-01   0.000e+00   0.000e+00
  -1.224e+00   0.000e+00   0.000e+00
  -1.266e+00   0.000e+00   0.000e+00
  -1.040e+00   0.000e+00   0.000e+00
  -1.108e+00   0.000e+00   0.000e+00
  -1.101e+00   0.000e+00   0.000e+00
  -8.830e-01   0.000e+00   0.000e+00
  -9.460e-01   0.000e+00   0.000e+00
  -1.039e+00   0.000e+00   0.000e+00
  -1.023e+00   0.000e+00   0.000e+00
  -1.205e+00   0.000e+00   0.000e+00
  -1.254e+00   0.000e+00   0.000e+00
  -1.056e+00   0.000e+00   0.000e+00
  -1.320e+00   0.000e+00   0.000e+00
  -1.109e+00   0.000e+00   0.000e+00
  -1.109e+00   0.000e+00   0.000e+00
  -1.012e+00   0.000e+00   0.000e+00
  -1.070e+00   0.000e+00   0.000e+00
  -1.121e+00   0.000e+00   0.000e+00
  -1.164e+00   0.000e+00   0.000e+00
  -1.175e+00   0.000e+00   0.000e+00
  -1.154e+00   0.000e+00   0.000e+00
  -1.223e+00   0.000e+00   0.000e+00
  -1.157e+00   0.000e+00   0.000e+00
  -9.534e-01   0.000e+00   0.000e+00
  -1.074e+00   0.000e+00   0.000e+00
  -1.195e+00   0.000e+00   0.000e+00
  -1.111e+00   0.000e+00   0.000e+00
  -9.526e-01   0.000e+00   0.000e+00
  -1.304e+00   0.000e+00   0.000e+00
  -1.068e+00   0.000e+00   0.000e+00
  -1.122e+00   0.000e+00   0.000e+00
  -1.155e+00   0.000e+00   0.000e+00
  -1.202e+00   0.000e+00   0.000e+00
  -1.038e+00   0.000e+00   0.000e+00
  -1.162e+00   0.000e+00   0.000e+00
  -1.047e+00   0.000e+00   0.000e+00
  -1.236e+00   0.000e+00   0.000e+00
  -1.291e+00   0.000e+00   0.000e+00
  -9.837e-01   0.000e+00   0.000e+00
  -1.338e+00   0.000e+00   0.000e+00
  -1.271e+00   0.000e+00   0.000e+00
  -1.106e+00   0.000e+00   0.000e+00
  -1.166e+00   0.000e+00   0.000e+00
  -9.608e-01   0.000e+00   0.000e+00
  -1.012e+00   0.000e+00   0.000e+00
  -1.163e+00   0.000e+00   0.000e+00
  -1.321e+00   0.000e+00   0.000e+00
  -1.330e+00   0.000e+00   0.000e+00
  -1.107e+00   0.000e+00   0.000e+00
  -1.068e+00   0.000e+00   0.000e+00
  -1.286e+00   0.000e+00   0.000e+00
  -1.260e+00   0.000e+00   0.000e+00
  -1.137e+00   0.000e+00   0.000e+00
  -1.030e+00   0.000e+00   0.000e+00
  -1.357e+00   0.000e+00   0.000e+00
  -1.336e+00   0.000e+00   0.000e+00
  -1.208e+00   0.000e+00   0.000e+00
  -1.040e+00   0.000e+00   0.000e+00
  -1.177e+00   0.000e+00   0.000e+00
  -1.263e+00   0.000e+00   0.000e+00
  -1.224e+00   0.000e+00   0.000e+00
  -1.169e+00   0.000e+00   0.000e+00
  -1.166e+00   0.000e+00   0.000e+00
  -1.023e+00   0.000e+00   0.000e+00
  -1.232e+00   0.000e+00   0.000e+00
  -1.120e+00   0.000e+00   0.000e+00
  -1.101e+00   0.000e+00   0.000e+00
  -1.207e+00   0.000e+00   0.000e+00
  -1.121e+00   0.000e+00   0.000e+00
  -1.119e+00   0.000e+00   0.000e+00
  -1.286e+00   0.000e+00   0.000e+00
  -1.143e+00   0.000e+00   0.000e+00
  -1.046e+00   0.000e+00   0.000e+00
  -1.132e+00   0.000e+00   0.000e+00
  -1.020e+00   0.000e+00   0.000e+00
  -1.322e+00   0.000e+00   0.000e+00
  -1.106e+00   0.000e+00   0.000e+00
  -1.112e+00   0.000e+00   0.000e+00
  -1.111e+00   0.000e+00   0.000e+00
  -1.244e+00   0.000e+00   0.000e+00
  -1.219e+00   0.000e+00   0.000e+00
  -1.058e+00   0.000e+00   0.000e+00
  -1.135e+00   0.000e+00   0.000e+00
  -1.293e+00   0.000e+00   0.000e+00
  -1.175e+00   0.000e+00   0.000e+00
  -1.249e+00   0.000e+00   0.000e+00
  -1.247e+00   0.000e+00   0.000e+00
  -1.060e+00   0.000e+00   0.000e+00
  -1.216e+00   0.000e+00   0.000e+00
  -1.157e+00   0.000e+00   0.000e+00
  -1.127e+00   0.000e+00   0.000e+00
  -1.150e+00   0.000e+00   0.000e+00
  -1.262e+00   0.000e+00   0.000e+00
  -1.340e+00   0.000e+00   0.000e+00
  -1.204e+00   0.000e+00   0.000e+00
  -1.192e+00   0.000e+00   0.000e+00
  -1.112e+00   0.000e+00   0.000e+00
  -1.076e+00   0.000e+00   0.000e+00
  -1.276e+00   0.000e+00   0.000e+00
  -1.207e+00   0.000e+00   0.000e+00
  -1.136e+00   0.000e+00   0.000e+00
  -1.333e+00   0.000e+00   0.000e+00
  -1.269e+00   0.000e+00   0.000e+00
  -1.290e+00   0.000e+00   0.000e+00
  -1.132e+00   0.000e+00   0.000e+00
  -1.101e+00   0.000e+00   0.000e+00
  -1.203e+00   0.000e+00   0.000e+00
  -1.082e+00   0.000e+00   0.000e+00
  -1.183e+00   0.000e+00   0.000e+00
  -1.205e+00   0.000e+00   0.000e+00
  -1.149e+00   0.000e+00   0.000e+00
  -1.095e+00   0.000e+00   0.000e+00
  -1.149e+00   0.000e+00   0.000e+00
  -1.317e+00   0.000e+00   0.000e+00
  -1.199e+00   0.000e+00   0.000e+00
  -1.227e+00   0.000e+00   0.000e+00
  -1.133e+00   0.000e+00   0.000e+00
  -1.179e+00   0.000e+00   0.000e+00
  -1.257e+00   0.000e+00   0.000e+00
  -1.276e+00   0.000e+00   0.000e+00
  -1.223e+00   0.000e+00   0.000e+00
  -1.109e+00   0.000e+00   0.000e+00
  -1.241e+00   0.000e+00   0.000e+00
  -1.236e+00   0.000e+00   0.000e+00
  -1.149e+00   0.000e+00   0.000e+00
  -1.338e+00   0.000e+00   0.000e+00
  -1.257e+00   0.000e+00   0.000e+00
  -1.297e+00   0.000e+00   0.000e+00
  -1.255e+00   0.000e+00   0.000e+00
  -1.174e+00   0.000e+00   0.000e+00
  -1.155e+00   0.000e+00   0.000e+00
  -1.201e+00   0.000e+00   0.000e+00
  -1.158e+00   0.000e+00   0.000e+00
  -1.221e+00   0.000e+00   0.000e+00
  -1.243e+00   0.000e+00   0.000e+00
  -1.311e+00   0.000e+00   0.000e+00
  -1.219e+00   0.000e+00   0.000e+00
  -1.220e+00   0.000e+00   0.000e+00
  -1.132e+00   0.000e+00   0.000e+00
  -1.259e+00   0.000e+00   0.000e+00
  -1.184e+00   0.000e+00   0.000e+00
  -1.124e+00   0.000e+00   0.000e+00
  -1.217e+00   0.000e+00   0.000e+00
  -1.128e+00   0.000e+00   0.000e+00
  -1.141e+00   0.000e+00   0.000e+00
  -1.247e+00   0.000e+00   0.000e+00
  -1.216e+00   0.000e+00   0.000e+00
  -1.231e+00   0.000e+00   0.000e+00
  -1.300e+00   0.000e+00   0.000e+00
  -1.207e+00   0.000e+00   0.000e+00
  -1.245e+00   0.000e+00   0.000e+00
  -1.197e+00   0.000e+00   0.000e+00
  -1.164e+00   0.000e+00   0.000e+00
  -1.216e+00   0.000e+00   0.000e+00
  -1.150e+00   0.000e+00   0.000e+00
  -1.171e+00   0.000e+00   0.000e+00
  -1.220e+00   0.000e+00   0.000e+00
  -1.211e+00   0.000e+00   0.000e+00
  -1.209e+00   0.000e+00   0.000e+00
  -1.198e+00   0.000e+00   0.000e+00
  -1.256e+00   0.000e+00   0.000e+00
  -1.231e+00   0.000e+00   0.000e+00
  -1.235e+00   0.000e+00   0.000e+00
  -1.158e+00   0.000e+00   0.000e+00
  -1.144e+00   0.000e+00   0.000e+00
  -1.229e+00   0.000e+00   0.000e+00
  -1.184e+00   0.000e+00   0.000e+00
  -1.207e+00   0.000e+00   0.000e+00
  -1.215e+00   0.000e+00   0.000e+00
  -1.221e+00   0.000e+00   0.000e+00
  -1.220e+00   0.000e+00   0.000e+00
  -1.246e+00   0.000e+00   0.000e+00
  -1.173e+00   0.000e+00   0.000e+00
  -1.181e+00   0.000e+00   0.000e+00
  -1.189e+00   0.000e+00   0.000e+00
  -1.208e+00   0.000e+00   0.000e+00
  -1.219e+00   0.000e+00   0.000e+00
  -1.164e+00   0.000e+00   0.000e+00
  -1.220e+00   0.000e+00   0.000e+00
  -1.180e+00   0.000e+00   0.000e+00
  -1.207e+00   0.000e+00   0.000e+00
  -1.216e+00   0.000e+00   0.000e+00
  -1.212e+00   0.000e+00   0.000e+00
  -1.211e+00   0.000e+00   0.000e+00
  -1.188e+00   0.000e+00   0.000e+00
  -1.207e+00   0.000e+00   0.000e+00
  -1.212e+00   0.000e+00   0.000e+00
  -1.202e+00   0.000e+00   0.000e+00
  -1.189e+00   0.000e+00   0.000e+00
  -1.202e+00   0.000e+00   0.000e+00
  -1.203e+00   0.000e+00   0.000e+00
  -1.205e+00   0.000e+00   0.000e+00
  -1.192e+00   0.000e+00   0.000e+00
  -1.230e+00   0.000e+00   0.000e+00
  -1.197e+00   0.000e+00   0.000e+00
  -9.547e-01   0.000e+00   0.000e+00
  -9.413e-01   0.000e+00   0.000e+00
  -9.503e-01   0.000e+00   0.000e+00
  -9.355e-01   0.000e+00   0.000e+00
  -6.325e-01   0.000e+00   0.000e+00
  -6.311e-01   0.000e+00   0.000e+00
  -6.279e-01   0.000e+00   0.000e+00
  -6.268e-01   0.000e+00   0.000e+00
  -6.311e-01   0.000e+00   0.000e+00
  -6.318e-01   0.000e+00   0.000e+00
  -6.280e-01   0.000e+00   0.000e+00
  -6.285e-01   0.000e+00   0.000e+00
  -6.806e-01   0.000e+00   0.000e+00
  -7.128e-01   0.000e+00   0.000e+00
  -6.770e-01   0.000e+00   0.000e+00
  -7.109e-01   0.000e+00   0.000e+00
  -7.747e-01   0.000e+00   0.000e+00
  -7.497e-01   0.000e+00   0.000e+00
  -7.750e-01   0.000e+00   0.000e+00
  -7.450e-01   0.000e+00   0.000e+00
  -6.781e-01   0.000e+00   0.000e+00
  -6.361e-01   0.000e+00   0.000e+00
  -6.789e-01   0.000e+00   0.000e+00
  -6.310e-01   0.000e+00   0.000e+00
  -6.325e-01   0.000e+00   0.000e+00
  -6.361e-01   0.000e+00   0.000e+00
  -6.279e-01   0.000e+00   0.000e+00
  -6.310e-01   0.000e+00   0.000e+00
  -6.311e-01   0.000e+00   0.000e+00
  -6.311e-01   0.000e+00   0.000e+00
  -6.268e-01   0.000e+00   0.000e+00
  -6.280e-01   0.000e+00   0.000e+00
  -6.318e-01   0.000e+00   0.000e+00
  -6.335e-01   0.000e+00   0.000e+00
  -6.285e-01   0.000e+00   0.000e+00
  -6.301e-01   0.000e+00   0.000e+00
  -7.747e-01   0.000e+00   0.000e+00
  -8.522e-01   0.000e+00   0.000e+00
  -7.750e-01   0.000e+00   0.000e+00
  -8.507e-01   0.000e+00   0.000e+00
  -6.806e-01   0.000e+00   0.000e+00
  -6.625e-01   0.000e+00   0.000e+00
  -6.770e-01   0.000e+00   0.000e+00
  -6.629e-01   0.000e+00   0.000e+00
  -8.317e-01   0.000e+00   0.000e+00
  -7.465e-01   0.000e+00   0.000e+00
  -8.326e-01   0.000e+00   0.000e+00
  -7.442e-01   0.000e+00   0.000e+00
  -6.781e-01   0.000e+00   0.000e+00
  -7.409e-01   0.000e+00   0.000e+00
  -6.789e-01   0.000e+00   0.000e+00
  -7.384e-01   0.000e+00   0.000e+00
  -8.661e-01   0.000e+00   0.000e+00
  -8.684e-01   0.000e+00   0.000e+00
  -8.628e-01   0.000e+00   0.000e+00
  -8.653e-01   0.000e+00   0.000e+00
  -7.128e-01   0.000e+00   0.000e+00
  -7.497e-01   0.000e+00   0.000e+00
  -7.109e-01   0.000e+00   0.000e+00
  -7.450e-01   0.000e+00   0.000e+00
  -8.244e-01   0.000e+00   0.000e+00
  -8.262e-01   0.000e+00   0.000e+00
  -8.195e-01   0.000e+00   0.000e+00
  -8.209e-01   0.000e+00   0.000e+00
  -6.335e-01   0.000e+00   0.000e+00
  -6.625e-01   0.000e+00   0.000e+00
  -6.301e-01   0.000e+00   0.000e+00
  -6.629e-01   0.000e+00   0.000e+00
  -8.244e-01   0.000e+00   0.000e+00
  -8.266e-01   0.000e+00   0.000e+00
  -8.195e-01   0.000e+00   0.000e+00
  -8.207e-01   0.000e+00   0.000e+00
  -7.465e-01   0.000e+00   0.000e+00
  -7.409e-01   0.000e+00   0.000e+00
  -7.442e-01   0.000e+00   0.000e+00
  -7.384e-01   0.000e+00   0.000e+00
  -8.522e-01   0.000e+00   0.000e+00
  -8.624e-01   0.000e+00   0.000e+00
  -8.507e-01   0.000e+00   0.000e+00
  -8.592e-01   0.000e+00   0.000e+00
  -8.317e-01   0.000e+00   0.000e+00
  -9.195e-01   0.000e+00   0.000e+00
  -8.326e-01   0.000e+00   0.000e+00
  -9.144e-01   0.000e+00   0.000e+00
  -9.244e-01   0.000e+00   0.000e+00
  -9.382e-01   0.000e+00   0.000e+00
  -9.196e-01   0.000e+00   0.000e+00
  -9.362e-01   0.000e+00   0.000e+00
  -8.660e-01   0.000e+00   0.000e+00
  -8.663e-01   0.000e+00   0.000e+00
  -8.636e-01   0.000e+00   0.000e+00
  -8.639e-01   0.000e+00   0.000e+00
  -8.266e-01   0.000e+00   0.000e+00
  -8.405e-01   0.000e+00   0.000e+00
  -8.207e-01   0.000e+00   0.000e+00
  -8.405e-01   0.000e+00   0.000e+00
  -9.739e-01   0.000e+00   0.000e+00
  -9.212e-01   0.000e+00   0.000e+00
  -9.706e-01   0.000e+00   0.000e+00
  -9.211e-01   0.000e+00   0.000e+00
  -9.244e-01   0.000e+00   0.000e+00
  -9.207e-01   0.000e+00   0.000e+00
  -9.196e-01   0.000e+00   0.000e+00
  -9.185e-01   0.000e+00   0.000e+00
  -8.660e-01   0.000e+00   0.000e+00
  -8.653e-01   0.000e+00   0.000e+00
  -8.636e-01   0.000e+00   0.000e+00
  -8.628e-01   0.000e+00   0.000e+00
  -8.653e-01   0.000e+00   0.000e+00
  -8.369e-01   0.000e+00   0.000e+00
  -8.628e-01   0.000e+00   0.000e+00
  -8.364e-01   0.000e+00   0.000e+00
  -9.351e-01   0.000e+00   0.000e+00
  -9.401e-01   0.000e+00   0.000e+00
  -9.314e-01   0.000e+00   0.000e+00
  -9.361e-01   0.000e+00   0.000e+00
  -9.351e-01   0.000e+00   0.000e+00
  -9.297e-01   0.000e+00   0.000e+00
  -9.314e-01   0.000e+00   0.000e+00
  -9.257e-01   0.000e+00   0.000e+00
  -1.033e+00   0.000e+00   0.000e+00
  -1.017e+00   0.000e+00   0.000e+00
  -1.032e+00   0.000e+00   0.000e+00
  -1.013e+00   0.000e+00   0.000e+00
  -9.294e-01   0.000e+00   0.000e+00
  -9.293e-01   0.000e+00   0.000e+00
  -9.271e-01   0.000e+00   0.000e+00
  -9.270e-01   0.000e+00   0.000e+00
  -9.207e-01   0.000e+00   0.000e+00
  -9.258e-01   0.000e+00   0.000e+00
  -9.185e-01   0.000e+00   0.000e+00
  -9.246e-01   0.000e+00   0.000e+00
  -9.547e-01   0.000e+00   0.000e+00
  -9.725e-01   0.000e+00   0.000e+00
  -9.503e-01   0.000e+00   0.000e+00
  -9.662e-01   0.000e+00   0.000e+00
  -1.313e+00   0.000e+00   0.000e+00
  -1.307e+00   0.000e+00   0.000e+00
  -1.310e+00   0.000e+00   0.000e+00
  -1.305e+00   0.000e+00   0.000e+00
  -8.684e-01   0.000e+00   0.000e+00
  -9.212e-01   0.000e+00   0.000e+00
  -8.653e-01   0.000e+00   0.000e+00
  -9.211e-01   0.000e+00   0.000e+00
  -8.624e-01   0.000e+00   0.000e+00
  -9.541e-01   0.000e+00   0.000e+00
  -8.592e-01   0.000e+00   0.000e+00
  -9.529e-01   0.000e+00   0.000e+00
  -9.725e-01   0.000e+00   0.000e+00
  -1.001e+00   0.000e+00   0.000e+00
  -9.662e-01   0.000e+00   0.000e+00
  -1.001e+00   0.000e+00   0.000e+00
  -8.661e-01   0.000e+00   0.000e+00
  -8.405e-01   0.000e+00   0.000e+00
  -8.628e-01   0.000e+00   0.000e+00
  -8.405e-01   0.000e+00   0.000e+00
  -8.262e-01   0.000e+00   0.000e+00
  -8.369e-01   0.000e+00   0.000e+00
  -8.209e-01   0.000e+00   0.000e+00
  -8.364e-01   0.000e+00   0.000e+00
  -8.663e-01   0.000e+00   0.000e+00
  -9.297e-01   0.000e+00   0.000e+00
  -8.639e-01   0.000e+00   0.000e+00
  -9.257e-01   0.000e+00   0.000e+00
  -1.140e+00   0.000e+00   0.000e+00
  -1.066e+00   0.000e+00   0.000e+00
  -1.140e+00   0.000e+00   0.000e+00
  -1.064e+00   0.000e+00   0.000e+00
  -1.021e+00   0.000e+00   0.000e+00
  -1.039e+00   0.000e+00   0.000e+00
  -1.017e+00   0.000e+00   0.000e+00
  -1.035e+00   0.000e+00   0.000e+00
  -9.293e-01   0.000e+00   0.000e+00
  -9.292e-01   0.000e+00   0.000e+00
  -9.270e-01   0.000e+00   0.000e+00
  -9.270e-01   0.000e+00   0.000e+00
  -9.347e-01   0.000e+00   0.000e+00
  -9.444e-01   0.000e+00   0.000e+00
  -9.321e-01   0.000e+00   0.000e+00
  -9.414e-01   0.000e+00   0.000e+00
  -1.001e+00   0.000e+00   0.000e+00
  -1.056e+00   0.000e+00   0.000e+00
  -1.001e+00   0.000e+00   0.000e+00
  -1.055e+00   0.000e+00   0.000e+00
  -9.687e-01   0.000e+00   0.000e+00
  -9.726e-01   0.000e+00   0.000e+00
  -9.637e-01   0.000e+00   0.000e+00
  -9.677e-01   0.000e+00   0.000e+00
  -1.036e+00   0.000e+00   0.000e+00
  -9.766e-01   0.000e+00   0.000e+00
  -1.034e+00   0.000e+00   0.000e+00
  -9.714e-01   0.000e+00   0.000e+00
  -9.413e-01   0.000e+00   0.000e+00
  -9.258e-01   0.000e+00   0.000e+00
  -9.355e-01   0.000e+00   0.000e+00
  -9.246e-01   0.000e+00   0.000e+00
  -9.401e-01   0.000e+00   0.000e+00
  -1.021e+00   0.000e+00   0.000e+00
  -9.361e-01   0.000e+00   0.000e+00
  -1.017e+00   0.000e+00   0.000e+00
  -9.195e-01   0.000e+00   0.000e+00
  -9.230e-01   0.000e+00   0.000e+00
  -9.144e-01   0.000e+00   0.000e+00
  -9.182e-01   0.000e+00   0.000e+00
  -9.739e-01   0.000e+00   0.000e+00
  -1.001e+00   0.000e+00   0.000e+00
  -9.706e-01   0.000e+00   0.000e+00
  -9.982e-01   0.000e+00   0.000e+00
  -9.292e-01   0.000e+00   0.000e+00
  -9.292e-01   0.000e+00   0.000e+00
  -9.270e-01   0.000e+00   0.000e+00
  -9.269e-01   0.000e+00   0.000e+00
  -1.017e+00   0.000e+00   0.000e+00
  -9.824e-01   0.000e+00   0.000e+00
  -1.013e+00   0.000e+00   0.000e+00
  -9.815e-01   0.000e+00   0.000e+00
  -1.059e+00   0.000e+00   0.000e+00
  -1.011e+00   0.000e+00   0.000e+00
  -1.057e+00   0.000e+00   0.000e+00
  -1.008e+00   0.000e+00   0.000e+00
  -9.541e-01   0.000e+00   0.000e+00
  -1.011e+00   0.000e+00   0.000e+00
  -9.529e-01   0.000e+00   0.000e+00
  -1.008e+00   0.000e+00   0.000e+00
  -1.038e+00   0.000e+00   0.000e+00
  -9.491e-01   0.000e+00   0.000e+00
  -1.032e+00   0.000e+00   0.000e+00
  -9.426e-01   0.000e+00   0.000e+00
  -1.000e+00   0.000e+00   0.000e+00
  -9.678e-01   0.000e+00   0.000e+00
  -9.945e-01   0.000e+00   0.000e+00
  -9.670e-01   0.000e+00   0.000e+00
  -9.230e-01   0.000e+00   0.000e+00
  -9.491e-01   0.000e+00   0.000e+00
  -9.182e-01   0.000e+00   0.000e+00
  -9.426e-01   0.000e+00   0.000e+00
  -1.001e+00   0.000e+00   0.000e+00
  -1.070e+00   0.000e+00   0.000e+00
  -9.982e-01   0.000e+00   0.000e+00
  -1.070e+00   0.000e+00   0.000e+00
  -9.292e-01   0.000e+00   0.000e+00
  -9.292e-01   0.000e+00   0.000e+00
  -9.269e-01   0.000e+00   0.000e+00
  -9.282e-01   0.000e+00   0.000e+00
  -1.066e+00   0.000e+00   0.000e+00
  -1.056e+00   0.000e+00   0.000e+00
  -1.064e+00   0.000e+00   0.000e+00
  -1.055e+00   0.000e+00   0.000e+00
  -9.382e-01   0.000e+00   0.000e+00
  -9.687e-01   0.000e+00   0.000e+00
  -9.362e-01   0.000e+00   0.000e+00
  -9.637e-01   0.000e+00   0.000e+00
  -9.726e-01   0.000e+00   0.000e+00
  -9.766e-01   0.000e+00   0.000e+00
  -9.677e-01   0.000e+00   0.000e+00
  -9.714e-01   0.000e+00   0.000e+00
  -1.000e+00   0.000e+00   0.000e+00
  -1.016e+00   0.000e+00   0.000e+00
  -9.945e-01   0.000e+00   0.000e+00
  -1.012e+00   0.000e+00   0.000e+00
  -9.444e-01   0.000e+00   0.000e+00
  -9.678e-01   0.000e+00   0.000e+00
  -9.414e-01   0.000e+00   0.000e+00
  -9.670e-01   0.000e+00   0.000e+00
  -1.113e+00   0.000e+00   0.000e+00
  -1.072e+00   0.000e+00   0.000e+00
  -1.111e+00   0.000e+00   0.000e+00
  -1.068e+00   0.000e+00   0.000e+00
  -1.070e+00   0.000e+00   0.000e+00
  -1.123e+00   0.000e+00   0.000e+00
  -1.070e+00   0.000e+00   0.000e+00
  -1.115e+00   0.000e+00   0.000e+00
  -9.824e-01   0.000e+00   0.000e+00
  -9.624e-01   0.000e+00   0.000e+00
  -9.815e-01   0.000e+00   0.000e+00
  -9.605e-01   0.000e+00   0.000e+00
  -1.118e+00   0.000e+00   0.000e+00
  -1.110e+00   0.000e+00   0.000e+00
  -1.116e+00   0.000e+00   0.000e+00
  -1.105e+00   0.000e+00   0.000e+00
  -1.123e+00   0.000e+00   0.000e+00
  -1.163e+00   0.000e+00   0.000e+00
  -1.115e+00   0.000e+00   0.000e+00
  -1.158e+00   0.000e+00   0.000e+00
  -9.294e-01   0.000e+00   0.000e+00
  -9.624e-01   0.000e+00   0.000e+00
  -9.271e-01   0.000e+00   0.000e+00
  -9.605e-01   0.000e+00   0.000e+00
  -1.036e+00   0.000e+00   0.000e+00
  -1.072e+00   0.000e+00   0.000e+00
  -1.034e+00   0.000e+00   0.000e+00
  -1.068e+00   0.000e+00   0.000e+00
  -1.038e+00   0.000e+00   0.000e+00
  -1.045e+00   0.000e+00   0.000e+00
  -1.032e+00   0.000e+00   0.000e+00
  -1.038e+00   0.000e+00   0.000e+00
  -1.039e+00   0.000e+00   0.000e+00
  -1.110e+00   0.000e+00   0.000e+00
  -1.035e+00   0.000e+00   0.000e+00
  -1.105e+00   0.000e+00   0.000e+00
  -1.123e+00   0.000e+00   0.000e+00
  -1.188e+00   0.000e+00   0.000e+00
  -1.120e+00   0.000e+00   0.000e+00
  -1.187e+00   0.000e+00   0.000e+00
  -9.347e-01   0.000e+00   0.000e+00
  -9.292e-01   0.000e+00   0.000e+00
  -9.321e-01   0.000e+00   0.000e+00
  -9.282e-01   0.000e+00   0.000e+00
  -1.138e+00   0.000e+00   0.000e+00
  -1.121e+00   0.000e+00   0.000e+00
  -1.138e+00   0.000e+00   0.000e+00
  -1.117e+00   0.000e+00   0.000e+00
  -1.140e+00   0.000e+00   0.000e+00
  -1.182e+00   0.000e+00   0.000e+00
  -1.140e+00   0.000e+00   0.000e+00
  -1.177e+00   0.000e+00   0.000e+00
  -1.059e+00   0.000e+00   0.000e+00
  -1.121e+00   0.000e+00   0.000e+00
  -1.057e+00   0.000e+00   0.000e+00
  -1.117e+00   0.000e+00   0.000e+00
  -1.230e+00   0.000e+00   0.000e+00
  -1.157e+00   0.000e+00   0.000e+00
  -1.224e+00   0.000e+00   0.000e+00
  -1.157e+00   0.000e+00   0.000e+00
  -1.016e+00   0.000e+00   0.000e+00
  -1.038e+00   0.000e+00   0.000e+00
  -1.012e+00   0.000e+00   0.000e+00
  -1.033e+00   0.000e+00   0.000e+00
  -1.033e+00   0.000e+00   0.000e+00
  -1.093e+00   0.000e+00   0.000e+00
  -1.032e+00   0.000e+00   0.000e+00
  -1.092e+00   0.000e+00   0.000e+00
  -1.196e+00   0.000e+00   0.000e+00
  -1.238e+00   0.000e+00   0.000e+00
  -1.189e+00   0.000e+00   0.000e+00
  -1.238e+00   0.000e+00   0.000e+00
  -1.113e+00   0.000e+00   0.000e+00
  -1.157e+00   0.000e+00   0.000e+00
  -1.111e+00   0.000e+00   0.000e+00
  -1.157e+00   0.000e+00   0.000e+00
  -1.052e+00   0.000e+00   0.000e+00
  -1.137e+00   0.000e+00   0.000e+00
  -1.046e+00   0.000e+00   0.000e+00
  -1.133e+00   0.000e+00   0.000e+00
  -1.106e+00   0.000e+00   0.000e+00
  -1.068e+00   0.000e+00   0.000e+00
  -1.101e+00   0.000e+00   0.000e+00
  -1.068e+00   0.000e+00   0.000e+00
  -1.230e+00   0.000e+00   0.000e+00
  -1.244e+00   0.000e+00   0.000e+00
  -1.224e+00   0.000e+00   0.000e+00
  -1.238e+00   0.000e+00   0.000e+00
  -1.038e+00   0.000e+00   0.000e+00
  -1.068e+00   0.000e+00   0.000e+00
  -1.033e+00   0.000e+00   0.000e+00
  -1.068e+00   0.000e+00   0.000e+00
  -1.182e+00   0.000e+00   0.000e+00
  -1.225e+00   0.000e+00   0.000e+00
  -1.177e+00   0.000e+00   0.000e+00
  -1.223e+00   0.000e+00   0.000e+00
  -1.118e+00   0.000e+00   0.000e+00
  -1.123e+00   0.000e+00   0.000e+00
  -1.116e+00   0.000e+00   0.000e+00
  -1.120e+00   0.000e+00   0.000e+00
  -1.244e+00   0.000e+00   0.000e+00
  -1.250e+00   0.000e+00   0.000e+00
  -1.238e+00   0.000e+00   0.000e+00
  -1.245e+00   0.000e+00   0.000e+00
  -1.225e+00   0.000e+00   0.000e+00
  -1.263e+00   0.000e+00   0.000e+00
  -1.223e+00   0.000e+00   0.000e+00
  -1.258e+00   0.000e+00   0.000e+00
  -1.093e+00   0.000e+00   0.000e+00
  -1.104e+00   0.000e+00   0.000e+00
  -1.092e+00   0.000e+00   0.000e+00
  -1.101e+00   0.000e+00   0.000e+00
  -1.163e+00   0.000e+00   0.000e+00
  -1.196e+00   0.000e+00   0.000e+00
  -1.158e+00   0.000e+00   0.000e+00
  -1.189e+00   0.000e+00   0.000e+00
  -1.225e+00   0.000e+00   0.000e+00
  -1.217e+00   0.000e+00   0.000e+00
  -1.220e+00   0.000e+00   0.000e+00
  -1.212e+00   0.000e+00   0.000e+00
  -1.137e+00   0.000e+00   0.000e+00
  -1.156e+00   0.000e+00   0.000e+00
  -1.133e+00   0.000e+00   0.000e+00
  -1.153e+00   0.000e+00   0.000e+00
  -1.045e+00   0.000e+00   0.000e+00
  -1.052e+00   0.000e+00   0.000e+00
  -1.038e+00   0.000e+00   0.000e+00
  -1.046e+00   0.000e+00   0.000e+00
  -1.156e+00   0.000e+00   0.000e+00
  -1.193e+00   0.000e+00   0.000e+00
  -1.153e+00   0.000e+00   0.000e+00
  -1.188e+00   0.000e+00   0.000e+00
  -1.138e+00   0.000e+00   0.000e+00
  -1.157e+00   0.000e+00   0.000e+00
  -1.138e+00   0.000e+00   0.000e+00
  -1.153e+00   0.000e+00   0.000e+00
  -1.263e+00   0.000e+00   0.000e+00
  -1.289e+00   0.000e+00   0.000e+00
  -1.258e+00   0.000e+00   0.000e+00
  -1.290e+00   0.000e+00   0.000e+00
  -1.306e+00   0.000e+00   0.000e+00
  -1.247e+00   0.000e+00   0.000e+00
  -1.305e+00   0.000e+00   0.000e+00
  -1.247e+00   0.000e+00   0.000e+00
  -1.106e+00   0.000e+00   0.000e+00
  -1.122e+00   0.000e+00   0.000e+00
  -1.101e+00   0.000e+00   0.000e+00
  -1.117e+00   0.000e+00   0.000e+00
  -1.104e+00   0.000e+00   0.000e+00
  -1.161e+00   0.000e+00   0.000e+00
  -1.101e+00   0.000e+00   0.000e+00
  -1.161e+00   0.000e+00   0.000e+00
  -1.157e+00   0.000e+00   0.000e+00
  -1.192e+00   0.000e+00   0.000e+00
  -1.153e+00   0.000e+00   0.000e+00
  -1.189e+00   0.000e+00   0.000e+00
  -1.217e+00   0.000e+00   0.000e+00
  -1.161e+00   0.000e+00   0.000e+00
  -1.212e+00   0.000e+00   0.000e+00
  -1.161e+00   0.000e+00   0.000e+00
  -1.122e+00   0.000e+00   0.000e+00
  -1.133e+00   0.000e+00   0.000e+00
  -1.117e+00   0.000e+00   0.000e+00
  -1.127e+00   0.000e+00   0.000e+00
  -1.188e+00   0.000e+00   0.000e+00
  -1.231e+00   0.000e+00   0.000e+00
  -1.187e+00   0.000e+00   0.000e+00
  -1.228e+00   0.000e+00   0.000e+00
  -1.247e+00   0.000e+00   0.000e+00
  -1.231e+00   0.000e+00   0.000e+00
  -1.247e+00   0.000e+00   0.000e+00
  -1.228e+00   0.000e+00   0.000e+00
  -1.250e+00   0.000e+00   0.000e+00
  -1.271e+00   0.000e+00   0.000e+00
  -1.245e+00   0.000e+00   0.000e+00
  -1.265e+00   0.000e+00   0.000e+00
  -1.351e+00   0.000e+00   0.000e+00
  -1.314e+00   0.000e+00   0.000e+00
  -1.350e+00   0.000e+00   0.000e+00
  -1.315e+00   0.000e+00   0.000e+00
  -1.238e+00   0.000e+00   0.000e+00
  -1.283e+00   0.000e+00   0.000e+00
  -1.238e+00   0.000e+00   0.000e+00
  -1.281e+00   0.000e+00   0.000e+00
  -1.333e+00   0.000e+00   0.000e+00
  -1.333e+00   0.000e+00   0.000e+00
  -1.329e+00   0.000e+00   0.000e+00
  -1.329e+00   0.000e+00   0.000e+00
  -1.193e+00   0.000e+00   0.000e+00
  -1.207e+00   0.000e+00   0.000e+00
  -1.189e+00   0.000e+00   0.000e+00
  -1.203e+00   0.000e+00   0.000e+00
  -1.192e+00   0.000e+00   0.000e+00
  -1.198e+00   0.000e+00   0.000e+00
  -1.189e+00   0.000e+00   0.000e+00
  -1.196e+00   0.000e+00   0.000e+00
  -1.335e+00   0.000e+00   0.000e+00
  -1.344e+00   0.000e+00   0.000e+00
  -1.333e+00   0.000e+00   0.000e+00
  -1.341e+00   0.000e+00   0.000e+00
  -1.198e+00   0.000e+00   0.000e+00
  -1.207e+00   0.000e+00   0.000e+00
  -1.196e+00   0.000e+00   0.000e+00
  -1.203e+00   0.000e+00   0.000e+00
  -1.371e+00   0.000e+00   0.000e+00
  -1.381e+00   0.000e+00   0.000e+00
  -1.371e+00   0.000e+00   0.000e+00
  -1.378e+00   0.000e+00   0.000e+00
  -1.291e+00   0.000e+00   0.000e+00
  -1.228e+00   0.000e+00   0.000e+00
  -1.285e+00   0.000e+00   0.000e+00
  -1.224e+00   0.000e+00   0.000e+00
  -1.193e+00   0.000e+00   0.000e+00
  -1.193e+00   0.000e+00   0.000e+00
  -1.188e+00   0.000e+00   0.000e+00
  -1.189e+00   0.000e+00   0.000e+00
  -1.289e+00   0.000e+00   0.000e+00
  -1.335e+00   0.000e+00   0.000e+00
  -1.290e+00   0.000e+00   0.000e+00
  -1.333e+00   0.000e+00   0.000e+00
  -1.133e+00   0.000e+00   0.000e+00
  -1.186e+00   0.000e+00   0.000e+00
  -1.127e+00   0.000e+00   0.000e+00
  -1.187e+00   0.000e+00   0.000e+00
  -1.307e+00   0.000e+00   0.000e+00
  -1.306e+00   0.000e+00   0.000e+00
  -1.305e+00   0.000e+00   0.000e+00
  -1.305e+00   0.000e+00   0.000e+00
  -1.271e+00   0.000e+00   0.000e+00
  -1.314e+00   0.000e+00   0.000e+00
  -1.265e+00   0.000e+00   0.000e+00
  -1.315e+00   0.000e+00   0.000e+00
  -1.283e+00   0.000e+00   0.000e+00
  -1.299e+00   0.000e+00   0.000e+00
  -1.281e+00   0.000e+00   0.000e+00
  -1.296e+00   0.000e+00   0.000e+00
  -1.207e+00   0.000e+00   0.000e+00
  -1.207e+00   0.000e+00   0.000e+00
  -1.203e+00   0.000e+00   0.000e+00
  -1.203e+00   0.000e+00   0.000e+00
  -1.381e+00   0.000e+00   0.000e+00
  -1.382e+00   0.000e+00   0.000e+00
  -1.378e+00   0.000e+00   0.000e+00
  -1.379e+00   0.000e+00   0.000e+00
  -1.299e+00   0.000e+00   0.000e+00
  -1.322e+00   0.000e+00   0.000e+00
  -1.296e+00   0.000e+00   0.000e+00
  -1.322e+00   0.000e+00   0.000e+00
  -1.225e+00   0.000e+00   0.000e+00
  -1.228e+00   0.000e+00   0.000e+00
  -1.220e+00   0.000e+00   0.000e+00
  -1.224e+00   0.000e+00   0.000e+00
  -1.378e+00   0.000e+00   0.000e+00
  -1.361e+00   0.000e+00   0.000e+00
  -1.378e+00   0.000e+00   0.000e+00
  -1.358e+00   0.000e+00   0.000e+00
  -1.351e+00   0.000e+00   0.000e+00
  -1.361e+00   0.000e+00   0.000e+00
  -1.350e+00   0.000e+00   0.000e+00
  -1.358e+00   0.000e+00   0.000e+00
  -1.344e+00   0.000e+00   0.000e+00
  -1.371e+00   0.000e+00   0.000e+00
  -1.341e+00   0.000e+00   0.000e+00
  -1.371e+00   0.000e+00   0.000e+00
  -1.264e+00   0.000e+00   0.000e+00
  -1.263e+00   0.000e+00   0.000e+00
  -1.260e+00   0.000e+00   0.000e+00
  -1.259e+00   0.000e+00   0.000e+00
  -1.186e+00   0.000e+00   0.000e+00
  -1.262e+00   0.000e+00   0.000e+00
  -1.187e+00   0.000e+00   0.000e+00
  -1.257e+00   0.000e+00   0.000e+00
  -1.334e+00   0.000e+00   0.000e+00
  -1.303e+00   0.000e+00   0.000e+00
  -1.328e+00   0.000e+00   0.000e+00
  -1.296e+00   0.000e+00   0.000e+00
  -1.263e+00   0.000e+00   0.000e+00
  -1.262e+00   0.000e+00   0.000e+00
  -1.259e+00   0.000e+00   0.000e+00
  -1.257e+00   0.000e+00   0.000e+00
  -1.333e+00   0.000e+00   0.000e+00
  -1.322e+00   0.000e+00   0.000e+00
  -1.329e+00   0.000e+00   0.000e+00
  -1.322e+00   0.000e+00   0.000e+00
  -1.333e+00   0.000e+00   0.000e+00
  -1.333e+00   0.000e+00   0.000e+00
  -1.329e+00   0.000e+00   0.000e+00
  -1.329e+00   0.000e+00   0.000e+00
  -1.291e+00   0.000e+00   0.000e+00
  -1.303e+00   0.000e+00   0.000e+00
  -1.285e+00   0.000e+00   0.000e+00
  -1.296e+00   0.000e+00   0.000e+00
  -1.321e+00   0.000e+00   0.000e+00
  -1.323e+00   0.000e+00   0.000e+00
  -1.321e+00   0.000e+00   0.000e+00
  -1.322e+00   0.000e+00   0.000e+00
  -1.334e+00   0.000e+00   0.000e+00
  -1.342e+00   0.000e+00   0.000e+00
  -1.328e+00   0.000e+00   0.000e+00
  -1.340e+00   0.000e+00   0.000e+00
  -1.323e+00   0.000e+00   0.000e+00
  -1.351e+00   0.000e+00   0.000e+00
  -1.322e+00   0.000e+00   0.000e+00
  -1.351e+00   0.000e+00   0.000e+00
  -1.382e+00   0.000e+00   0.000e+00
  -1.378e+00   0.000e+00   0.000e+00
  -1.379e+00   0.000e+00   0.000e+00
  -1.378e+00   0.000e+00   0.000e+00
  -1.321e+00   0.000e+00   0.000e+00
  -1.275e+00   0.000e+00   0.000e+00
  -1.321e+00   0.000e+00   0.000e+00
  -1.271e+00   0.000e+00   0.000e+00
  -1.313e+00   0.000e+00   0.000e+00
  -1.333e+00   0.000e+00   0.000e+00
  -1.310e+00   0.000e+00   0.000e+00
  -1.329e+00   0.000e+00   0.000e+00
  -1.342e+00   0.000e+00   0.000e+00
  -1.346e+00   0.000e+00   0.000e+00
  -1.340e+00   0.000e+00   0.000e+00
  -1.341e+00   0.000e+00   0.000e+00
  -1.264e+00   0.000e+00   0.000e+00
  -1.275e+00   0.000e+00   0.000e+00
  -1.260e+00   0.000e+00   0.000e+00
  -1.271e+00   0.000e+00   0.000e+00
  -1.351e+00   0.000e+00   0.000e+00
  -1.357e+00   0.000e+00   0.000e+00
  -1.351e+00   0.000e+00   0.000e+00
  -1.352e+00   0.000e+00   0.000e+00
  -1.357e+00   0.000e+00   0.000e+00
  -1.358e+00   0.000e+00   0.000e+00
  -1.352e+00   0.000e+00   0.000e+00
  -1.355e+00   0.000e+00   0.000e+00
  -1.346e+00   0.000e+00   0.000e+00
  -1.358e+00   0.000e+00   0.000e+00
  -1.341e+00   0.000e+00   0.000e+00
  -1.355e+00   0.000e+00   0.000e+00
