# vtk DataFile Version 2.0
Bulk mesh generated by generateVTK.m
ASCII
DATASET UNSTRUCTURED_GRID

POINTS 2084 float
  -1.000e+00  -1.000e+00   0.000e+00
  -9.512e-01  -1.000e+00   0.000e+00
  -9.024e-01  -1.000e+00   0.000e+00
  -8.537e-01  -1.000e+00   0.000e+00
  -8.049e-01  -1.000e+00   0.000e+00
  -7.561e-01  -1.000e+00   0.000e+00
  -7.073e-01  -1.000e+00   0.000e+00
  -6.585e-01  -1.000e+00   0.000e+00
  -6.098e-01  -1.000e+00   0.000e+00
  -5.610e-01  -1.000e+00   0.000e+00
  -5.122e-01  -1.000e+00   0.000e+00
  -4.634e-01  -1.000e+00   0.000e+00
  -4.146e-01  -1.000e+00   0.000e+00
  -3.659e-01  -1.000e+00   0.000e+00
  -3.171e-01  -1.000e+00   0.000e+00
  -2.683e-01  -1.000e+00   0.000e+00
  -2.195e-01  -1.000e+00   0.000e+00
  -1.707e-01  -1.000e+00   0.000e+00
  -1.220e-01  -1.000e+00   0.000e+00
  -7.317e-02  -1.000e+00   0.000e+00
  -2.439e-02  -1.000e+00   0.000e+00
   2.439e-02  -1.000e+00   0.000e+00
   7.317e-02  -1.000e+00   0.000e+00
   1.220e-01  -1.000e+00   0.000e+00
   1.707e-01  -1.000e+00   0.000e+00
   2.195e-01  -1.000e+00   0.000e+00
   2.683e-01  -1.000e+00   0.000e+00
   3.171e-01  -1.000e+00   0.000e+00
   3.659e-01  -1.000e+00   0.000e+00
   4.146e-01  -1.000e+00   0.000e+00
   4.634e-01  -1.000e+00   0.000e+00
   5.122e-01  -1.000e+00   0.000e+00
   5.610e-01  -1.000e+00   0.000e+00
   6.098e-01  -1.000e+00   0.000e+00
   6.585e-01  -1.000e+00   0.000e+00
   7.073e-01  -1.000e+00   0.000e+00
   7.561e-01  -1.000e+00   0.000e+00
   8.049e-01  -1.000e+00   0.000e+00
   8.537e-01  -1.000e+00   0.000e+00
   9.024e-01  -1.000e+00   0.000e+00
   9.512e-01  -1.000e+00   0.000e+00
   1.000e+00  -1.000e+00   0.000e+00
  -1.000e+00  -9.512e-01   0.000e+00
  -9.512e-01  -9.512e-01   0.000e+00
  -9.024e-01  -9.512e-01   0.000e+00
  -8.537e-01  -9.512e-01   0.000e+00
  -8.049e-01  -9.512e-01   0.000e+00
  -7.561e-01  -9.512e-01   0.000e+00
  -7.073e-01  -9.512e-01   0.000e+00
  -6.585e-01  -9.512e-01   0.000e+00
  -6.098e-01  -9.512e-01   0.000e+00
  -5.610e-01  -9.512e-01   0.000e+00
  -5.122e-01  -9.512e-01   0.000e+00
  -4.634e-01  -9.512e-01   0.000e+00
  -4.146e-01  -9.512e-01   0.000e+00
  -3.659e-01  -9.512e-01   0.000e+00
  -3.171e-01  -9.512e-01   0.000e+00
  -2.683e-01  -9.512e-01   0.000e+00
  -2.195e-01  -9.512e-01   0.000e+00
  -1.707e-01  -9.512e-01   0.000e+00
  -1.220e-01  -9.512e-01   0.000e+00
  -7.317e-02  -9.512e-01   0.000e+00
  -2.439e-02  -9.512e-01   0.000e+00
   2.439e-02  -9.512e-01   0.000e+00
   7.317e-02  -9.512e-01   0.000e+00
   1.220e-01  -9.512e-01   0.000e+00
   1.707e-01  -9.512e-01   0.000e+00
   2.195e-01  -9.512e-01   0.000e+00
   2.683e-01  -9.512e-01   0.000e+00
   3.171e-01  -9.512e-01   0.000e+00
   3.659e-01  -9.512e-01   0.000e+00
   4.146e-01  -9.512e-01   0.000e+00
   4.634e-01  -9.512e-01   0.000e+00
   5.122e-01  -9.512e-01   0.000e+00
   5.610e-01  -9.512e-01   0.000e+00
   6.098e-01  -9.512e-01   0.000e+00
   6.585e-01  -9.512e-01   0.000e+00
   7.073e-01  -9.512e-01   0.000e+00
   7.561e-01  -9.512e-01   0.000e+00
   8.049e-01  -9.512e-01   0.000e+00
   8.537e-01  -9.512e-01   0.000e+00
   9.024e-01  -9.512e-01   0.000e+00
   9.512e-01  -9.512e-01   0.000e+00
   1.000e+00  -9.512e-01   0.000e+00
  -1.000e+00  -9.024e-01   0.000e+00
  -9.512e-01  -9.024e-01   0.000e+00
  -9.024e-01  -9.024e-01   0.000e+00
  -8.537e-01  -9.024e-01   0.000e+00
  -8.049e-01  -9.024e-01   0.000e+00
  -7.561e-01  -9.024e-01   0.000e+00
  -7.073e-01  -9.024e-01   0.000e+00
  -6.585e-01  -9.024e-01   0.000e+00
  -6.098e-01  -9.024e-01   0.000e+00
  -5.610e-01  -9.024e-01   0.000e+00
  -5.122e-01  -9.024e-01   0.000e+00
  -4.634e-01  -9.024e-01   0.000e+00
  -4.146e-01  -9.024e-01   0.000e+00
  -3.659e-01  -9.024e-01   0.000e+00
  -3.171e-01  -9.024e-01   0.000e+00
  -2.683e-01  -9.024e-01   0.000e+00
  -2.195e-01  -9.024e-01   0.000e+00
  -1.707e-01  -9.024e-01   0.000e+00
  -1.220e-01  -9.024e-01   0.000e+00
  -7.317e-02  -9.024e-01   0.000e+00
  -2.439e-02  -9.024e-01   0.000e+00
   2.439e-02  -9.024e-01   0.000e+00
   7.317e-02  -9.024e-01   0.000e+00
   1.220e-01  -9.024e-01   0.000e+00
   1.707e-01  -9.024e-01   0.000e+00
   2.195e-01  -9.024e-01   0.000e+00
   2.683e-01  -9.024e-01   0.000e+00
   3.171e-01  -9.024e-01   0.000e+00
   3.659e-01  -9.024e-01   0.000e+00
   4.146e-01  -9.024e-01   0.000e+00
   4.634e-01  -9.024e-01   0.000e+00
   5.122e-01  -9.024e-01   0.000e+00
   5.610e-01  -9.024e-01   0.000e+00
   6.098e-01  -9.024e-01   0.000e+00
   6.585e-01  -9.024e-01   0.000e+00
   7.073e-01  -9.024e-01   0.000e+00
   7.561e-01  -9.024e-01   0.000e+00
   8.049e-01  -9.024e-01   0.000e+00
   8.537e-01  -9.024e-01   0.000e+00
   9.024e-01  -9.024e-01   0.000e+00
   9.512e-01  -9.024e-01   0.000e+00
   1.000e+00  -9.024e-01   0.000e+00
  -1.000e+00  -8.537e-01   0.000e+00
  -9.512e-01  -8.537e-01   0.000e+00
  -9.024e-01  -8.537e-01   0.000e+00
  -8.537e-01  -8.537e-01   0.000e+00
  -8.049e-01  -8.537e-01   0.000e+00
  -7.561e-01  -8.537e-01   0.000e+00
  -7.073e-01  -8.537e-01   0.000e+00
  -6.585e-01  -8.537e-01   0.000e+00
  -6.098e-01  -8.537e-01   0.000e+00
  -5.610e-01  -8.537e-01   0.000e+00
  -5.122e-01  -8.537e-01   0.000e+00
  -4.634e-01  -8.537e-01   0.000e+00
  -4.146e-01  -8.537e-01   0.000e+00
  -3.659e-01  -8.537e-01   0.000e+00
  -3.171e-01  -8.537e-01   0.000e+00
  -2.683e-01  -8.537e-01   0.000e+00
  -2.195e-01  -8.537e-01   0.000e+00
  -1.707e-01  -8.537e-01   0.000e+00
  -1.220e-01  -8.537e-01   0.000e+00
  -7.317e-02  -8.537e-01   0.000e+00
  -2.439e-02  -8.537e-01   0.000e+00
   2.439e-02  -8.537e-01   0.000e+00
   7.317e-02  -8.537e-01   0.000e+00
   1.220e-01  -8.537e-01   0.000e+00
   1.707e-01  -8.537e-01   0.000e+00
   2.195e-01  -8.537e-01   0.000e+00
   2.683e-01  -8.537e-01   0.000e+00
   3.171e-01  -8.537e-01   0.000e+00
   3.659e-01  -8.537e-01   0.000e+00
   4.146e-01  -8.537e-01   0.000e+00
   4.634e-01  -8.537e-01   0.000e+00
   5.122e-01  -8.537e-01   0.000e+00
   5.610e-01  -8.537e-01   0.000e+00
   6.098e-01  -8.537e-01   0.000e+00
   6.585e-01  -8.537e-01   0.000e+00
   7.073e-01  -8.537e-01   0.000e+00
   7.561e-01  -8.537e-01   0.000e+00
   8.049e-01  -8.537e-01   0.000e+00
   8.537e-01  -8.537e-01   0.000e+00
   9.024e-01  -8.537e-01   0.000e+00
   9.512e-01  -8.537e-01   0.000e+00
   1.000e+00  -8.537e-01   0.000e+00
  -1.000e+00  -8.049e-01   0.000e+00
  -9.512e-01  -8.049e-01   0.000e+00
  -9.024e-01  -8.049e-01   0.000e+00
  -8.537e-01  -8.049e-01   0.000e+00
  -8.049e-01  -8.049e-01   0.000e+00
  -7.561e-01  -8.049e-01   0.000e+00
  -7.073e-01  -8.049e-01   0.000e+00
  -6.585e-01  -8.049e-01   0.000e+00
  -6.098e-01  -8.049e-01   0.000e+00
  -5.610e-01  -8.049e-01   0.000e+00
  -5.122e-01  -8.049e-01   0.000e+00
  -4.634e-01  -8.049e-01   0.000e+00
  -4.146e-01  -8.049e-01   0.000e+00
  -3.659e-01  -8.049e-01   0.000e+00
  -3.171e-01  -8.049e-01   0.000e+00
  -2.683e-01  -8.049e-01   0.000e+00
  -2.195e-01  -8.049e-01   0.000e+00
  -1.707e-01  -8.049e-01   0.000e+00
  -1.220e-01  -8.049e-01   0.000e+00
  -7.317e-02  -8.049e-01   0.000e+00
  -2.439e-02  -8.049e-01   0.000e+00
   2.439e-02  -8.049e-01   0.000e+00
   7.317e-02  -8.049e-01   0.000e+00
   1.220e-01  -8.049e-01   0.000e+00
   1.707e-01  -8.049e-01   0.000e+00
   2.195e-01  -8.049e-01   0.000e+00
   2.683e-01  -8.049e-01   0.000e+00
   3.171e-01  -8.049e-01   0.000e+00
   3.659e-01  -8.049e-01   0.000e+00
   4.146e-01  -8.049e-01   0.000e+00
   4.634e-01  -8.049e-01   0.000e+00
   5.122e-01  -8.049e-01   0.000e+00
   5.610e-01  -8.049e-01   0.000e+00
   6.098e-01  -8.049e-01   0.000e+00
   6.585e-01  -8.049e-01   0.000e+00
   7.073e-01  -8.049e-01   0.000e+00
   7.561e-01  -8.049e-01   0.000e+00
   8.049e-01  -8.049e-01   0.000e+00
   8.537e-01  -8.049e-01   0.000e+00
   9.024e-01  -8.049e-01   0.000e+00
   9.512e-01  -8.049e-01   0.000e+00
   1.000e+00  -8.049e-01   0.000e+00
  -1.000e+00  -7.561e-01   0.000e+00
  -9.512e-01  -7.561e-01   0.000e+00
  -9.024e-01  -7.561e-01   0.000e+00
  -8.537e-01  -7.561e-01   0.000e+00
  -8.049e-01  -7.561e-01   0.000e+00
  -7.561e-01  -7.561e-01   0.000e+00
  -7.073e-01  -7.561e-01   0.000e+00
  -6.585e-01  -7.561e-01   0.000e+00
  -6.098e-01  -7.561e-01   0.000e+00
  -5.610e-01  -7.561e-01   0.000e+00
  -5.122e-01  -7.561e-01   0.000e+00
  -4.634e-01  -7.561e-01   0.000e+00
  -4.146e-01  -7.561e-01   0.000e+00
  -3.659e-01  -7.561e-01   0.000e+00
  -3.171e-01  -7.561e-01   0.000e+00
  -2.683e-01  -7.561e-01   0.000e+00
  -2.195e-01  -7.561e-01   0.000e+00
  -1.707e-01  -7.561e-01   0.000e+00
  -1.220e-01  -7.561e-01   0.000e+00
  -7.317e-02  -7.561e-01   0.000e+00
  -2.439e-02  -7.561e-01   0.000e+00
   2.439e-02  -7.561e-01   0.000e+00
   7.317e-02  -7.561e-01   0.000e+00
   1.220e-01  -7.561e-01   0.000e+00
   1.707e-01  -7.561e-01   0.000e+00
   2.195e-01  -7.561e-01   0.000e+00
   2.683e-01  -7.561e-01   0.000e+00
   3.171e-01  -7.561e-01   0.000e+00
   3.659e-01  -7.561e-01   0.000e+00
   4.146e-01  -7.561e-01   0.000e+00
   4.634e-01  -7.561e-01   0.000e+00
   5.122e-01  -7.561e-01   0.000e+00
   5.610e-01  -7.561e-01   0.000e+00
   6.098e-01  -7.561e-01   0.000e+00
   6.585e-01  -7.561e-01   0.000e+00
   7.073e-01  -7.561e-01   0.000e+00
   7.561e-01  -7.561e-01   0.000e+00
   8.049e-01  -7.561e-01   0.000e+00
   8.537e-01  -7.561e-01   0.000e+00
   9.024e-01  -7.561e-01   0.000e+00
   9.512e-01  -7.561e-01   0.000e+00
   1.000e+00  -7.561e-01   0.000e+00
  -1.000e+00  -7.073e-01   0.000e+00
  -9.512e-01  -7.073e-01   0.000e+00
  -9.024e-01  -7.073e-01   0.000e+00
  -8.537e-01  -7.073e-01   0.000e+00
  -8.049e-01  -7.073e-01   0.000e+00
  -7.561e-01  -7.073e-01   0.000e+00
  -7.073e-01  -7.073e-01   0.000e+00
  -6.585e-01  -7.073e-01   0.000e+00
  -6.098e-01  -7.073e-01   0.000e+00
  -5.610e-01  -7.073e-01   0.000e+00
  -5.122e-01  -7.073e-01   0.000e+00
  -4.634e-01  -7.073e-01   0.000e+00
  -4.146e-01  -7.073e-01   0.000e+00
  -3.659e-01  -7.073e-01   0.000e+00
  -3.171e-01  -7.073e-01   0.000e+00
  -2.683e-01  -7.073e-01   0.000e+00
  -2.195e-01  -7.073e-01   0.000e+00
  -1.707e-01  -7.073e-01   0.000e+00
  -1.220e-01  -7.073e-01   0.000e+00
  -7.317e-02  -7.073e-01   0.000e+00
  -2.439e-02  -7.073e-01   0.000e+00
   2.439e-02  -7.073e-01   0.000e+00
   7.317e-02  -7.073e-01   0.000e+00
   1.220e-01  -7.073e-01   0.000e+00
   1.707e-01  -7.073e-01   0.000e+00
   2.195e-01  -7.073e-01   0.000e+00
   2.683e-01  -7.073e-01   0.000e+00
   3.171e-01  -7.073e-01   0.000e+00
   3.659e-01  -7.073e-01   0.000e+00
   4.146e-01  -7.073e-01   0.000e+00
   4.634e-01  -7.073e-01   0.000e+00
   5.122e-01  -7.073e-01   0.000e+00
   5.610e-01  -7.073e-01   0.000e+00
   6.098e-01  -7.073e-01   0.000e+00
   6.585e-01  -7.073e-01   0.000e+00
   7.073e-01  -7.073e-01   0.000e+00
   7.561e-01  -7.073e-01   0.000e+00
   8.049e-01  -7.073e-01   0.000e+00
   8.537e-01  -7.073e-01   0.000e+00
   9.024e-01  -7.073e-01   0.000e+00
   9.512e-01  -7.073e-01   0.000e+00
   1.000e+00  -7.073e-01   0.000e+00
  -1.000e+00  -6.585e-01   0.000e+00
  -9.512e-01  -6.585e-01   0.000e+00
  -9.024e-01  -6.585e-01   0.000e+00
  -8.537e-01  -6.585e-01   0.000e+00
  -8.049e-01  -6.585e-01   0.000e+00
  -7.561e-01  -6.585e-01   0.000e+00
  -7.073e-01  -6.585e-01   0.000e+00
  -6.585e-01  -6.585e-01   0.000e+00
  -6.098e-01  -6.585e-01   0.000e+00
  -5.610e-01  -6.585e-01   0.000e+00
  -5.122e-01  -6.585e-01   0.000e+00
  -4.634e-01  -6.585e-01   0.000e+00
  -4.146e-01  -6.585e-01   0.000e+00
  -3.659e-01  -6.585e-01   0.000e+00
  -3.171e-01  -6.585e-01   0.000e+00
  -2.683e-01  -6.585e-01   0.000e+00
  -2.195e-01  -6.585e-01   0.000e+00
  -1.707e-01  -6.585e-01   0.000e+00
  -1.220e-01  -6.585e-01   0.000e+00
  -7.317e-02  -6.585e-01   0.000e+00
  -2.439e-02  -6.585e-01   0.000e+00
   2.439e-02  -6.585e-01   0.000e+00
   7.317e-02  -6.585e-01   0.000e+00
   1.220e-01  -6.585e-01   0.000e+00
   1.707e-01  -6.585e-01   0.000e+00
   2.195e-01  -6.585e-01   0.000e+00
   2.683e-01  -6.585e-01   0.000e+00
   3.171e-01  -6.585e-01   0.000e+00
   3.659e-01  -6.585e-01   0.000e+00
   4.146e-01  -6.585e-01   0.000e+00
   4.634e-01  -6.585e-01   0.000e+00
   5.122e-01  -6.585e-01   0.000e+00
   5.610e-01  -6.585e-01   0.000e+00
   6.098e-01  -6.585e-01   0.000e+00
   6.585e-01  -6.585e-01   0.000e+00
   7.073e-01  -6.585e-01   0.000e+00
   7.561e-01  -6.585e-01   0.000e+00
   8.049e-01  -6.585e-01   0.000e+00
   8.537e-01  -6.585e-01   0.000e+00
   9.024e-01  -6.585e-01   0.000e+00
   9.512e-01  -6.585e-01   0.000e+00
   1.000e+00  -6.585e-01   0.000e+00
  -1.000e+00  -6.098e-01   0.000e+00
  -9.512e-01  -6.098e-01   0.000e+00
  -9.024e-01  -6.098e-01   0.000e+00
  -8.537e-01  -6.098e-01   0.000e+00
  -8.049e-01  -6.098e-01   0.000e+00
  -7.561e-01  -6.098e-01   0.000e+00
  -7.073e-01  -6.098e-01   0.000e+00
  -6.585e-01  -6.098e-01   0.000e+00
  -6.098e-01  -6.098e-01   0.000e+00
  -5.610e-01  -6.098e-01   0.000e+00
  -5.122e-01  -6.098e-01   0.000e+00
  -4.634e-01  -6.098e-01   0.000e+00
  -4.146e-01  -6.098e-01   0.000e+00
  -3.659e-01  -6.098e-01   0.000e+00
  -3.171e-01  -6.098e-01   0.000e+00
  -2.683e-01  -6.098e-01   0.000e+00
  -2.195e-01  -6.098e-01   0.000e+00
  -1.707e-01  -6.098e-01   0.000e+00
  -1.220e-01  -6.098e-01   0.000e+00
  -7.317e-02  -6.098e-01   0.000e+00
  -2.439e-02  -6.098e-01   0.000e+00
   2.439e-02  -6.098e-01   0.000e+00
   7.317e-02  -6.098e-01   0.000e+00
   1.220e-01  -6.098e-01   0.000e+00
   1.707e-01  -6.098e-01   0.000e+00
   2.195e-01  -6.098e-01   0.000e+00
   2.683e-01  -6.098e-01   0.000e+00
   3.171e-01  -6.098e-01   0.000e+00
   3.659e-01  -6.098e-01   0.000e+00
   4.146e-01  -6.098e-01   0.000e+00
   4.634e-01  -6.098e-01   0.000e+00
   5.122e-01  -6.098e-01   0.000e+00
   5.610e-01  -6.098e-01   0.000e+00
   6.098e-01  -6.098e-01   0.000e+00
   6.585e-01  -6.098e-01   0.000e+00
   7.073e-01  -6.098e-01   0.000e+00
   7.561e-01  -6.098e-01   0.000e+00
   8.049e-01  -6.098e-01   0.000e+00
   8.537e-01  -6.098e-01   0.000e+00
   9.024e-01  -6.098e-01   0.000e+00
   9.512e-01  -6.098e-01   0.000e+00
   1.000e+00  -6.098e-01   0.000e+00
  -1.000e+00  -5.610e-01   0.000e+00
  -9.512e-01  -5.610e-01   0.000e+00
  -9.024e-01  -5.610e-01   0.000e+00
  -8.537e-01  -5.610e-01   0.000e+00
  -8.049e-01  -5.610e-01   0.000e+00
  -7.561e-01  -5.610e-01   0.000e+00
  -7.073e-01  -5.610e-01   0.000e+00
  -6.585e-01  -5.610e-01   0.000e+00
  -6.098e-01  -5.610e-01   0.000e+00
  -5.610e-01  -5.610e-01   0.000e+00
  -5.122e-01  -5.610e-01   0.000e+00
  -4.634e-01  -5.610e-01   0.000e+00
  -4.146e-01  -5.610e-01   0.000e+00
  -3.659e-01  -5.610e-01   0.000e+00
  -3.171e-01  -5.610e-01   0.000e+00
  -2.683e-01  -5.610e-01   0.000e+00
  -2.195e-01  -5.610e-01   0.000e+00
  -1.707e-01  -5.610e-01   0.000e+00
  -1.220e-01  -5.610e-01   0.000e+00
  -7.317e-02  -5.610e-01   0.000e+00
  -2.439e-02  -5.610e-01   0.000e+00
   2.439e-02  -5.610e-01   0.000e+00
   7.317e-02  -5.610e-01   0.000e+00
   1.220e-01  -5.610e-01   0.000e+00
   1.707e-01  -5.610e-01   0.000e+00
   2.195e-01  -5.610e-01   0.000e+00
   2.683e-01  -5.610e-01   0.000e+00
   3.171e-01  -5.610e-01   0.000e+00
   3.659e-01  -5.610e-01   0.000e+00
   4.146e-01  -5.610e-01   0.000e+00
   4.634e-01  -5.610e-01   0.000e+00
   5.122e-01  -5.610e-01   0.000e+00
   5.610e-01  -5.610e-01   0.000e+00
   6.098e-01  -5.610e-01   0.000e+00
   6.585e-01  -5.610e-01   0.000e+00
   7.073e-01  -5.610e-01   0.000e+00
   7.561e-01  -5.610e-01   0.000e+00
   8.049e-01  -5.610e-01   0.000e+00
   8.537e-01  -5.610e-01   0.000e+00
   9.024e-01  -5.610e-01   0.000e+00
   9.512e-01  -5.610e-01   0.000e+00
   1.000e+00  -5.610e-01   0.000e+00
  -1.000e+00  -5.122e-01   0.000e+00
  -9.512e-01  -5.122e-01   0.000e+00
  -9.024e-01  -5.122e-01   0.000e+00
  -8.537e-01  -5.122e-01   0.000e+00
  -8.049e-01  -5.122e-01   0.000e+00
  -7.561e-01  -5.122e-01   0.000e+00
  -7.073e-01  -5.122e-01   0.000e+00
  -6.585e-01  -5.122e-01   0.000e+00
  -6.098e-01  -5.122e-01   0.000e+00
  -5.610e-01  -5.122e-01   0.000e+00
  -5.122e-01  -5.122e-01   0.000e+00
  -4.634e-01  -5.122e-01   0.000e+00
  -4.146e-01  -5.122e-01   0.000e+00
  -3.659e-01  -5.122e-01   0.000e+00
  -3.171e-01  -5.122e-01   0.000e+00
  -2.683e-01  -5.122e-01   0.000e+00
  -2.195e-01  -5.122e-01   0.000e+00
  -1.707e-01  -5.122e-01   0.000e+00
  -1.220e-01  -5.122e-01   0.000e+00
  -7.317e-02  -5.122e-01   0.000e+00
  -2.439e-02  -5.122e-01   0.000e+00
   2.439e-02  -5.122e-01   0.000e+00
   7.317e-02  -5.122e-01   0.000e+00
   1.220e-01  -5.122e-01   0.000e+00
   1.707e-01  -5.122e-01   0.000e+00
   2.195e-01  -5.122e-01   0.000e+00
   2.683e-01  -5.122e-01   0.000e+00
   3.171e-01  -5.122e-01   0.000e+00
   3.659e-01  -5.122e-01   0.000e+00
   4.146e-01  -5.122e-01   0.000e+00
   4.634e-01  -5.122e-01   0.000e+00
   5.122e-01  -5.122e-01   0.000e+00
   5.610e-01  -5.122e-01   0.000e+00
   6.098e-01  -5.122e-01   0.000e+00
   6.585e-01  -5.122e-01   0.000e+00
   7.073e-01  -5.122e-01   0.000e+00
   7.561e-01  -5.122e-01   0.000e+00
   8.049e-01  -5.122e-01   0.000e+00
   8.537e-01  -5.122e-01   0.000e+00
   9.024e-01  -5.122e-01   0.000e+00
   9.512e-01  -5.122e-01   0.000e+00
   1.000e+00  -5.122e-01   0.000e+00
  -1.000e+00  -4.634e-01   0.000e+00
  -9.512e-01  -4.634e-01   0.000e+00
  -9.024e-01  -4.634e-01   0.000e+00
  -8.537e-01  -4.634e-01   0.000e+00
  -8.049e-01  -4.634e-01   0.000e+00
  -7.561e-01  -4.634e-01   0.000e+00
  -7.073e-01  -4.634e-01   0.000e+00
  -6.585e-01  -4.634e-01   0.000e+00
  -6.098e-01  -4.634e-01   0.000e+00
  -5.610e-01  -4.634e-01   0.000e+00
  -5.122e-01  -4.634e-01   0.000e+00
  -4.634e-01  -4.634e-01   0.000e+00
  -4.146e-01  -4.634e-01   0.000e+00
  -3.659e-01  -4.634e-01   0.000e+00
  -3.171e-01  -4.634e-01   0.000e+00
  -2.683e-01  -4.634e-01   0.000e+00
  -2.195e-01  -4.634e-01   0.000e+00
  -1.707e-01  -4.634e-01   0.000e+00
  -1.220e-01  -4.634e-01   0.000e+00
  -7.317e-02  -4.634e-01   0.000e+00
  -2.439e-02  -4.634e-01   0.000e+00
   2.439e-02  -4.634e-01   0.000e+00
   7.317e-02  -4.634e-01   0.000e+00
   1.220e-01  -4.634e-01   0.000e+00
   1.707e-01  -4.634e-01   0.000e+00
   2.195e-01  -4.634e-01   0.000e+00
   2.683e-01  -4.634e-01   0.000e+00
   3.171e-01  -4.634e-01   0.000e+00
   3.659e-01  -4.634e-01   0.000e+00
   4.146e-01  -4.634e-01   0.000e+00
   4.634e-01  -4.634e-01   0.000e+00
   5.122e-01  -4.634e-01   0.000e+00
   5.610e-01  -4.634e-01   0.000e+00
   6.098e-01  -4.634e-01   0.000e+00
   6.585e-01  -4.634e-01   0.000e+00
   7.073e-01  -4.634e-01   0.000e+00
   7.561e-01  -4.634e-01   0.000e+00
   8.049e-01  -4.634e-01   0.000e+00
   8.537e-01  -4.634e-01   0.000e+00
   9.024e-01  -4.634e-01   0.000e+00
   9.512e-01  -4.634e-01   0.000e+00
   1.000e+00  -4.634e-01   0.000e+00
  -1.000e+00  -4.146e-01   0.000e+00
  -9.512e-01  -4.146e-01   0.000e+00
  -9.024e-01  -4.146e-01   0.000e+00
  -8.537e-01  -4.146e-01   0.000e+00
  -8.049e-01  -4.146e-01   0.000e+00
  -7.561e-01  -4.146e-01   0.000e+00
  -7.073e-01  -4.146e-01   0.000e+00
  -6.585e-01  -4.146e-01   0.000e+00
  -6.098e-01  -4.146e-01   0.000e+00
  -5.610e-01  -4.146e-01   0.000e+00
  -5.122e-01  -4.146e-01   0.000e+00
  -4.634e-01  -4.146e-01   0.000e+00
  -4.146e-01  -4.146e-01   0.000e+00
  -3.659e-01  -4.146e-01   0.000e+00
  -3.171e-01  -4.146e-01   0.000e+00
  -2.683e-01  -4.146e-01   0.000e+00
  -2.195e-01  -4.146e-01   0.000e+00
  -1.707e-01  -4.146e-01   0.000e+00
  -1.220e-01  -4.146e-01   0.000e+00
  -7.317e-02  -4.146e-01   0.000e+00
  -2.439e-02  -4.146e-01   0.000e+00
   2.439e-02  -4.146e-01   0.000e+00
   7.317e-02  -4.146e-01   0.000e+00
   1.220e-01  -4.146e-01   0.000e+00
   1.707e-01  -4.146e-01   0.000e+00
   2.195e-01  -4.146e-01   0.000e+00
   2.683e-01  -4.146e-01   0.000e+00
   3.171e-01  -4.146e-01   0.000e+00
   3.659e-01  -4.146e-01   0.000e+00
   4.146e-01  -4.146e-01   0.000e+00
   4.634e-01  -4.146e-01   0.000e+00
   5.122e-01  -4.146e-01   0.000e+00
   5.610e-01  -4.146e-01   0.000e+00
   6.098e-01  -4.146e-01   0.000e+00
   6.585e-01  -4.146e-01   0.000e+00
   7.073e-01  -4.146e-01   0.000e+00
   7.561e-01  -4.146e-01   0.000e+00
   8.049e-01  -4.146e-01   0.000e+00
   8.537e-01  -4.146e-01   0.000e+00
   9.024e-01  -4.146e-01   0.000e+00
   9.512e-01  -4.146e-01   0.000e+00
   1.000e+00  -4.146e-01   0.000e+00
  -1.000e+00  -3.659e-01   0.000e+00
  -9.512e-01  -3.659e-01   0.000e+00
  -9.024e-01  -3.659e-01   0.000e+00
  -8.537e-01  -3.659e-01   0.000e+00
  -8.049e-01  -3.659e-01   0.000e+00
  -7.561e-01  -3.659e-01   0.000e+00
  -7.073e-01  -3.659e-01   0.000e+00
  -6.585e-01  -3.659e-01   0.000e+00
  -6.098e-01  -3.659e-01   0.000e+00
  -5.610e-01  -3.659e-01   0.000e+00
  -5.122e-01  -3.659e-01   0.000e+00
  -4.634e-01  -3.659e-01   0.000e+00
  -4.146e-01  -3.659e-01   0.000e+00
  -3.659e-01  -3.659e-01   0.000e+00
  -3.171e-01  -3.659e-01   0.000e+00
  -2.683e-01  -3.659e-01   0.000e+00
  -2.195e-01  -3.659e-01   0.000e+00
  -1.707e-01  -3.659e-01   0.000e+00
  -1.220e-01  -3.659e-01   0.000e+00
  -7.317e-02  -3.659e-01   0.000e+00
  -2.439e-02  -3.659e-01   0.000e+00
   2.439e-02  -3.659e-01   0.000e+00
   7.317e-02  -3.659e-01   0.000e+00
   1.220e-01  -3.659e-01   0.000e+00
   1.707e-01  -3.659e-01   0.000e+00
   2.195e-01  -3.659e-01   0.000e+00
   2.683e-01  -3.659e-01   0.000e+00
   3.171e-01  -3.659e-01   0.000e+00
   3.659e-01  -3.659e-01   0.000e+00
   4.146e-01  -3.659e-01   0.000e+00
   4.634e-01  -3.659e-01   0.000e+00
   5.122e-01  -3.659e-01   0.000e+00
   5.610e-01  -3.659e-01   0.000e+00
   6.098e-01  -3.659e-01   0.000e+00
   6.585e-01  -3.659e-01   0.000e+00
   7.073e-01  -3.659e-01   0.000e+00
   7.561e-01  -3.659e-01   0.000e+00
   8.049e-01  -3.659e-01   0.000e+00
   8.537e-01  -3.659e-01   0.000e+00
   9.024e-01  -3.659e-01   0.000e+00
   9.512e-01  -3.659e-01   0.000e+00
   1.000e+00  -3.659e-01   0.000e+00
  -1.000e+00  -3.171e-01   0.000e+00
  -9.512e-01  -3.171e-01   0.000e+00
  -9.024e-01  -3.171e-01   0.000e+00
  -8.537e-01  -3.171e-01   0.000e+00
  -8.049e-01  -3.171e-01   0.000e+00
  -7.561e-01  -3.171e-01   0.000e+00
  -7.073e-01  -3.171e-01   0.000e+00
  -6.585e-01  -3.171e-01   0.000e+00
  -6.098e-01  -3.171e-01   0.000e+00
  -5.610e-01  -3.171e-01   0.000e+00
  -5.122e-01  -3.171e-01   0.000e+00
  -4.634e-01  -3.171e-01   0.000e+00
  -4.146e-01  -3.171e-01   0.000e+00
  -3.659e-01  -3.171e-01   0.000e+00
  -3.171e-01  -3.171e-01   0.000e+00
  -2.683e-01  -3.171e-01   0.000e+00
  -2.195e-01  -3.171e-01   0.000e+00
  -1.707e-01  -3.171e-01   0.000e+00
  -1.220e-01  -3.171e-01   0.000e+00
  -7.317e-02  -3.171e-01   0.000e+00
  -2.439e-02  -3.171e-01   0.000e+00
   2.439e-02  -3.171e-01   0.000e+00
   7.317e-02  -3.171e-01   0.000e+00
   1.220e-01  -3.171e-01   0.000e+00
   1.707e-01  -3.171e-01   0.000e+00
   2.195e-01  -3.171e-01   0.000e+00
   2.683e-01  -3.171e-01   0.000e+00
   3.171e-01  -3.171e-01   0.000e+00
   3.659e-01  -3.171e-01   0.000e+00
   4.146e-01  -3.171e-01   0.000e+00
   4.634e-01  -3.171e-01   0.000e+00
   5.122e-01  -3.171e-01   0.000e+00
   5.610e-01  -3.171e-01   0.000e+00
   6.098e-01  -3.171e-01   0.000e+00
   6.585e-01  -3.171e-01   0.000e+00
   7.073e-01  -3.171e-01   0.000e+00
   7.561e-01  -3.171e-01   0.000e+00
   8.049e-01  -3.171e-01   0.000e+00
   8.537e-01  -3.171e-01   0.000e+00
   9.024e-01  -3.171e-01   0.000e+00
   9.512e-01  -3.171e-01   0.000e+00
   1.000e+00  -3.171e-01   0.000e+00
  -1.000e+00  -2.683e-01   0.000e+00
  -9.512e-01  -2.683e-01   0.000e+00
  -9.024e-01  -2.683e-01   0.000e+00
  -8.537e-01  -2.683e-01   0.000e+00
  -8.049e-01  -2.683e-01   0.000e+00
  -7.561e-01  -2.683e-01   0.000e+00
  -7.073e-01  -2.683e-01   0.000e+00
  -6.585e-01  -2.683e-01   0.000e+00
  -6.098e-01  -2.683e-01   0.000e+00
  -5.610e-01  -2.683e-01   0.000e+00
  -5.122e-01  -2.683e-01   0.000e+00
  -4.634e-01  -2.683e-01   0.000e+00
  -4.146e-01  -2.683e-01   0.000e+00
  -3.659e-01  -2.683e-01   0.000e+00
  -3.171e-01  -2.683e-01   0.000e+00
  -2.683e-01  -2.683e-01   0.000e+00
  -2.195e-01  -2.683e-01   0.000e+00
  -1.707e-01  -2.683e-01   0.000e+00
  -1.220e-01  -2.683e-01   0.000e+00
  -7.317e-02  -2.683e-01   0.000e+00
  -2.439e-02  -2.683e-01   0.000e+00
   2.439e-02  -2.683e-01   0.000e+00
   7.317e-02  -2.683e-01   0.000e+00
   1.220e-01  -2.683e-01   0.000e+00
   1.707e-01  -2.683e-01   0.000e+00
   2.195e-01  -2.683e-01   0.000e+00
   2.683e-01  -2.683e-01   0.000e+00
   3.171e-01  -2.683e-01   0.000e+00
   3.659e-01  -2.683e-01   0.000e+00
   4.146e-01  -2.683e-01   0.000e+00
   4.634e-01  -2.683e-01   0.000e+00
   5.122e-01  -2.683e-01   0.000e+00
   5.610e-01  -2.683e-01   0.000e+00
   6.098e-01  -2.683e-01   0.000e+00
   6.585e-01  -2.683e-01   0.000e+00
   7.073e-01  -2.683e-01   0.000e+00
   7.561e-01  -2.683e-01   0.000e+00
   8.049e-01  -2.683e-01   0.000e+00
   8.537e-01  -2.683e-01   0.000e+00
   9.024e-01  -2.683e-01   0.000e+00
   9.512e-01  -2.683e-01   0.000e+00
   1.000e+00  -2.683e-01   0.000e+00
  -1.000e+00  -2.195e-01   0.000e+00
  -9.512e-01  -2.195e-01   0.000e+00
  -9.024e-01  -2.195e-01   0.000e+00
  -8.537e-01  -2.195e-01   0.000e+00
  -8.049e-01  -2.195e-01   0.000e+00
  -7.561e-01  -2.195e-01   0.000e+00
  -7.073e-01  -2.195e-01   0.000e+00
  -6.585e-01  -2.195e-01   0.000e+00
  -6.098e-01  -2.195e-01   0.000e+00
  -5.610e-01  -2.195e-01   0.000e+00
  -5.122e-01  -2.195e-01   0.000e+00
  -4.634e-01  -2.195e-01   0.000e+00
  -4.146e-01  -2.195e-01   0.000e+00
  -3.659e-01  -2.195e-01   0.000e+00
  -3.171e-01  -2.195e-01   0.000e+00
  -2.683e-01  -2.195e-01   0.000e+00
  -2.195e-01  -2.195e-01   0.000e+00
  -1.707e-01  -2.195e-01   0.000e+00
  -1.220e-01  -2.195e-01   0.000e+00
  -7.317e-02  -2.195e-01   0.000e+00
  -2.439e-02  -2.195e-01   0.000e+00
   2.439e-02  -2.195e-01   0.000e+00
   7.317e-02  -2.195e-01   0.000e+00
   1.220e-01  -2.195e-01   0.000e+00
   1.707e-01  -2.195e-01   0.000e+00
   2.195e-01  -2.195e-01   0.000e+00
   2.683e-01  -2.195e-01   0.000e+00
   3.171e-01  -2.195e-01   0.000e+00
   3.659e-01  -2.195e-01   0.000e+00
   4.146e-01  -2.195e-01   0.000e+00
   4.634e-01  -2.195e-01   0.000e+00
   5.122e-01  -2.195e-01   0.000e+00
   5.610e-01  -2.195e-01   0.000e+00
   6.098e-01  -2.195e-01   0.000e+00
   6.585e-01  -2.195e-01   0.000e+00
   7.073e-01  -2.195e-01   0.000e+00
   7.561e-01  -2.195e-01   0.000e+00
   8.049e-01  -2.195e-01   0.000e+00
   8.537e-01  -2.195e-01   0.000e+00
   9.024e-01  -2.195e-01   0.000e+00
   9.512e-01  -2.195e-01   0.000e+00
   1.000e+00  -2.195e-01   0.000e+00
  -1.000e+00  -1.707e-01   0.000e+00
  -9.512e-01  -1.707e-01   0.000e+00
  -9.024e-01  -1.707e-01   0.000e+00
  -8.537e-01  -1.707e-01   0.000e+00
  -8.049e-01  -1.707e-01   0.000e+00
  -7.561e-01  -1.707e-01   0.000e+00
  -7.073e-01  -1.707e-01   0.000e+00
  -6.585e-01  -1.707e-01   0.000e+00
  -6.098e-01  -1.707e-01   0.000e+00
  -5.610e-01  -1.707e-01   0.000e+00
  -5.122e-01  -1.707e-01   0.000e+00
  -4.634e-01  -1.707e-01   0.000e+00
  -4.146e-01  -1.707e-01   0.000e+00
  -3.659e-01  -1.707e-01   0.000e+00
  -3.171e-01  -1.707e-01   0.000e+00
  -2.683e-01  -1.707e-01   0.000e+00
  -2.195e-01  -1.707e-01   0.000e+00
  -1.707e-01  -1.707e-01   0.000e+00
  -1.220e-01  -1.707e-01   0.000e+00
  -7.317e-02  -1.707e-01   0.000e+00
  -2.439e-02  -1.707e-01   0.000e+00
   2.439e-02  -1.707e-01   0.000e+00
   7.317e-02  -1.707e-01   0.000e+00
   1.220e-01  -1.707e-01   0.000e+00
   1.707e-01  -1.707e-01   0.000e+00
   2.195e-01  -1.707e-01   0.000e+00
   2.683e-01  -1.707e-01   0.000e+00
   3.171e-01  -1.707e-01   0.000e+00
   3.659e-01  -1.707e-01   0.000e+00
   4.146e-01  -1.707e-01   0.000e+00
   4.634e-01  -1.707e-01   0.000e+00
   5.122e-01  -1.707e-01   0.000e+00
   5.610e-01  -1.707e-01   0.000e+00
   6.098e-01  -1.707e-01   0.000e+00
   6.585e-01  -1.707e-01   0.000e+00
   7.073e-01  -1.707e-01   0.000e+00
   7.561e-01  -1.707e-01   0.000e+00
   8.049e-01  -1.707e-01   0.000e+00
   8.537e-01  -1.707e-01   0.000e+00
   9.024e-01  -1.707e-01   0.000e+00
   9.512e-01  -1.707e-01   0.000e+00
   1.000e+00  -1.707e-01   0.000e+00
  -1.000e+00  -1.220e-01   0.000e+00
  -9.512e-01  -1.220e-01   0.000e+00
  -9.024e-01  -1.220e-01   0.000e+00
  -8.537e-01  -1.220e-01   0.000e+00
  -8.049e-01  -1.220e-01   0.000e+00
  -7.561e-01  -1.220e-01   0.000e+00
  -7.073e-01  -1.220e-01   0.000e+00
  -6.585e-01  -1.220e-01   0.000e+00
  -6.098e-01  -1.220e-01   0.000e+00
  -5.610e-01  -1.220e-01   0.000e+00
  -5.122e-01  -1.220e-01   0.000e+00
  -4.634e-01  -1.220e-01   0.000e+00
  -4.146e-01  -1.220e-01   0.000e+00
  -3.659e-01  -1.220e-01   0.000e+00
  -3.171e-01  -1.220e-01   0.000e+00
  -2.683e-01  -1.220e-01   0.000e+00
  -2.195e-01  -1.220e-01   0.000e+00
  -1.707e-01  -1.220e-01   0.000e+00
  -1.220e-01  -1.220e-01   0.000e+00
  -7.317e-02  -1.220e-01   0.000e+00
  -2.439e-02  -1.220e-01   0.000e+00
   2.439e-02  -1.220e-01   0.000e+00
   7.317e-02  -1.220e-01   0.000e+00
   1.220e-01  -1.220e-01   0.000e+00
   1.707e-01  -1.220e-01   0.000e+00
   2.195e-01  -1.220e-01   0.000e+00
   2.683e-01  -1.220e-01   0.000e+00
   3.171e-01  -1.220e-01   0.000e+00
   3.659e-01  -1.220e-01   0.000e+00
   4.146e-01  -1.220e-01   0.000e+00
   4.634e-01  -1.220e-01   0.000e+00
   5.122e-01  -1.220e-01   0.000e+00
   5.610e-01  -1.220e-01   0.000e+00
   6.098e-01  -1.220e-01   0.000e+00
   6.585e-01  -1.220e-01   0.000e+00
   7.073e-01  -1.220e-01   0.000e+00
   7.561e-01  -1.220e-01   0.000e+00
   8.049e-01  -1.220e-01   0.000e+00
   8.537e-01  -1.220e-01   0.000e+00
   9.024e-01  -1.220e-01   0.000e+00
   9.512e-01  -1.220e-01   0.000e+00
   1.000e+00  -1.220e-01   0.000e+00
  -1.000e+00  -7.317e-02   0.000e+00
  -9.512e-01  -7.317e-02   0.000e+00
  -9.024e-01  -7.317e-02   0.000e+00
  -8.537e-01  -7.317e-02   0.000e+00
  -8.049e-01  -7.317e-02   0.000e+00
  -7.561e-01  -7.317e-02   0.000e+00
  -7.073e-01  -7.317e-02   0.000e+00
  -6.585e-01  -7.317e-02   0.000e+00
  -6.098e-01  -7.317e-02   0.000e+00
  -5.610e-01  -7.317e-02   0.000e+00
  -5.122e-01  -7.317e-02   0.000e+00
  -4.634e-01  -7.317e-02   0.000e+00
  -4.146e-01  -7.317e-02   0.000e+00
  -3.659e-01  -7.317e-02   0.000e+00
  -3.171e-01  -7.317e-02   0.000e+00
  -2.683e-01  -7.317e-02   0.000e+00
  -2.195e-01  -7.317e-02   0.000e+00
  -1.707e-01  -7.317e-02   0.000e+00
  -1.220e-01  -7.317e-02   0.000e+00
  -7.317e-02  -7.317e-02   0.000e+00
  -2.439e-02  -7.317e-02   0.000e+00
   2.439e-02  -7.317e-02   0.000e+00
   7.317e-02  -7.317e-02   0.000e+00
   1.220e-01  -7.317e-02   0.000e+00
   1.707e-01  -7.317e-02   0.000e+00
   2.195e-01  -7.317e-02   0.000e+00
   2.683e-01  -7.317e-02   0.000e+00
   3.171e-01  -7.317e-02   0.000e+00
   3.659e-01  -7.317e-02   0.000e+00
   4.146e-01  -7.317e-02   0.000e+00
   4.634e-01  -7.317e-02   0.000e+00
   5.122e-01  -7.317e-02   0.000e+00
   5.610e-01  -7.317e-02   0.000e+00
   6.098e-01  -7.317e-02   0.000e+00
   6.585e-01  -7.317e-02   0.000e+00
   7.073e-01  -7.317e-02   0.000e+00
   7.561e-01  -7.317e-02   0.000e+00
   8.049e-01  -7.317e-02   0.000e+00
   8.537e-01  -7.317e-02   0.000e+00
   9.024e-01  -7.317e-02   0.000e+00
   9.512e-01  -7.317e-02   0.000e+00
   1.000e+00  -7.317e-02   0.000e+00
  -1.000e+00  -2.439e-02   0.000e+00
  -9.512e-01  -2.439e-02   0.000e+00
  -9.024e-01  -2.439e-02   0.000e+00
  -8.537e-01  -2.439e-02   0.000e+00
  -8.049e-01  -2.439e-02   0.000e+00
  -7.561e-01  -2.439e-02   0.000e+00
  -7.073e-01  -2.439e-02   0.000e+00
  -6.585e-01  -2.439e-02   0.000e+00
  -6.098e-01  -2.439e-02   0.000e+00
  -5.610e-01  -2.439e-02   0.000e+00
  -5.122e-01  -2.439e-02   0.000e+00
  -4.634e-01  -2.439e-02   0.000e+00
  -4.146e-01  -2.439e-02   0.000e+00
  -3.659e-01  -2.439e-02   0.000e+00
  -3.171e-01  -2.439e-02   0.000e+00
  -2.683e-01  -2.439e-02   0.000e+00
  -2.195e-01  -2.439e-02   0.000e+00
  -1.707e-01  -2.439e-02   0.000e+00
  -1.220e-01  -2.439e-02   0.000e+00
  -7.317e-02  -2.439e-02   0.000e+00
  -2.439e-02  -2.439e-02   0.000e+00
   2.439e-02  -2.439e-02   0.000e+00
   7.317e-02  -2.439e-02   0.000e+00
   1.220e-01  -2.439e-02   0.000e+00
   1.707e-01  -2.439e-02   0.000e+00
   2.195e-01  -2.439e-02   0.000e+00
   2.683e-01  -2.439e-02   0.000e+00
   3.171e-01  -2.439e-02   0.000e+00
   3.659e-01  -2.439e-02   0.000e+00
   4.146e-01  -2.439e-02   0.000e+00
   4.634e-01  -2.439e-02   0.000e+00
   5.122e-01  -2.439e-02   0.000e+00
   5.610e-01  -2.439e-02   0.000e+00
   6.098e-01  -2.439e-02   0.000e+00
   6.585e-01  -2.439e-02   0.000e+00
   7.073e-01  -2.439e-02   0.000e+00
   7.561e-01  -2.439e-02   0.000e+00
   8.049e-01  -2.439e-02   0.000e+00
   8.537e-01  -2.439e-02   0.000e+00
   9.024e-01  -2.439e-02   0.000e+00
   9.512e-01  -2.439e-02   0.000e+00
   1.000e+00  -2.439e-02   0.000e+00
  -1.000e+00   2.439e-02   0.000e+00
  -9.512e-01   2.439e-02   0.000e+00
  -9.024e-01   2.439e-02   0.000e+00
  -8.537e-01   2.439e-02   0.000e+00
  -8.049e-01   2.439e-02   0.000e+00
  -7.561e-01   2.439e-02   0.000e+00
  -7.073e-01   2.439e-02   0.000e+00
  -6.585e-01   2.439e-02   0.000e+00
  -6.098e-01   2.439e-02   0.000e+00
  -5.610e-01   2.439e-02   0.000e+00
  -5.122e-01   2.439e-02   0.000e+00
  -4.634e-01   2.439e-02   0.000e+00
  -4.146e-01   2.439e-02   0.000e+00
  -3.659e-01   2.439e-02   0.000e+00
  -3.171e-01   2.439e-02   0.000e+00
  -2.683e-01   2.439e-02   0.000e+00
  -2.195e-01   2.439e-02   0.000e+00
  -1.707e-01   2.439e-02   0.000e+00
  -1.220e-01   2.439e-02   0.000e+00
  -7.317e-02   2.439e-02   0.000e+00
  -2.439e-02   2.439e-02   0.000e+00
   2.439e-02   2.439e-02   0.000e+00
   7.317e-02   2.439e-02   0.000e+00
   1.220e-01   2.439e-02   0.000e+00
   1.707e-01   2.439e-02   0.000e+00
   2.195e-01   2.439e-02   0.000e+00
   2.683e-01   2.439e-02   0.000e+00
   3.171e-01   2.439e-02   0.000e+00
   3.659e-01   2.439e-02   0.000e+00
   4.146e-01   2.439e-02   0.000e+00
   4.634e-01   2.439e-02   0.000e+00
   5.122e-01   2.439e-02   0.000e+00
   5.610e-01   2.439e-02   0.000e+00
   6.098e-01   2.439e-02   0.000e+00
   6.585e-01   2.439e-02   0.000e+00
   7.073e-01   2.439e-02   0.000e+00
   7.561e-01   2.439e-02   0.000e+00
   8.049e-01   2.439e-02   0.000e+00
   8.537e-01   2.439e-02   0.000e+00
   9.024e-01   2.439e-02   0.000e+00
   9.512e-01   2.439e-02   0.000e+00
   1.000e+00   2.439e-02   0.000e+00
  -1.000e+00   7.317e-02   0.000e+00
  -9.512e-01   7.317e-02   0.000e+00
  -9.024e-01   7.317e-02   0.000e+00
  -8.537e-01   7.317e-02   0.000e+00
  -8.049e-01   7.317e-02   0.000e+00
  -7.561e-01   7.317e-02   0.000e+00
  -7.073e-01   7.317e-02   0.000e+00
  -6.585e-01   7.317e-02   0.000e+00
  -6.098e-01   7.317e-02   0.000e+00
  -5.610e-01   7.317e-02   0.000e+00
  -5.122e-01   7.317e-02   0.000e+00
  -4.634e-01   7.317e-02   0.000e+00
  -4.146e-01   7.317e-02   0.000e+00
  -3.659e-01   7.317e-02   0.000e+00
  -3.171e-01   7.317e-02   0.000e+00
  -2.683e-01   7.317e-02   0.000e+00
  -2.195e-01   7.317e-02   0.000e+00
  -1.707e-01   7.317e-02   0.000e+00
  -1.220e-01   7.317e-02   0.000e+00
  -7.317e-02   7.317e-02   0.000e+00
  -2.439e-02   7.317e-02   0.000e+00
   2.439e-02   7.317e-02   0.000e+00
   7.317e-02   7.317e-02   0.000e+00
   1.220e-01   7.317e-02   0.000e+00
   1.707e-01   7.317e-02   0.000e+00
   2.195e-01   7.317e-02   0.000e+00
   2.683e-01   7.317e-02   0.000e+00
   3.171e-01   7.317e-02   0.000e+00
   3.659e-01   7.317e-02   0.000e+00
   4.146e-01   7.317e-02   0.000e+00
   4.634e-01   7.317e-02   0.000e+00
   5.122e-01   7.317e-02   0.000e+00
   5.610e-01   7.317e-02   0.000e+00
   6.098e-01   7.317e-02   0.000e+00
   6.585e-01   7.317e-02   0.000e+00
   7.073e-01   7.317e-02   0.000e+00
   7.561e-01   7.317e-02   0.000e+00
   8.049e-01   7.317e-02   0.000e+00
   8.537e-01   7.317e-02   0.000e+00
   9.024e-01   7.317e-02   0.000e+00
   9.512e-01   7.317e-02   0.000e+00
   1.000e+00   7.317e-02   0.000e+00
  -1.000e+00   1.220e-01   0.000e+00
  -9.512e-01   1.220e-01   0.000e+00
  -9.024e-01   1.220e-01   0.000e+00
  -8.537e-01   1.220e-01   0.000e+00
  -8.049e-01   1.220e-01   0.000e+00
  -7.561e-01   1.220e-01   0.000e+00
  -7.073e-01   1.220e-01   0.000e+00
  -6.585e-01   1.220e-01   0.000e+00
  -6.098e-01   1.220e-01   0.000e+00
  -5.610e-01   1.220e-01   0.000e+00
  -5.122e-01   1.220e-01   0.000e+00
  -4.634e-01   1.220e-01   0.000e+00
  -4.146e-01   1.220e-01   0.000e+00
  -3.659e-01   1.220e-01   0.000e+00
  -3.171e-01   1.220e-01   0.000e+00
  -2.683e-01   1.220e-01   0.000e+00
  -2.195e-01   1.220e-01   0.000e+00
  -1.707e-01   1.220e-01   0.000e+00
  -1.220e-01   1.220e-01   0.000e+00
  -7.317e-02   1.220e-01   0.000e+00
  -2.439e-02   1.220e-01   0.000e+00
   2.439e-02   1.220e-01   0.000e+00
   7.317e-02   1.220e-01   0.000e+00
   1.220e-01   1.220e-01   0.000e+00
   1.707e-01   1.220e-01   0.000e+00
   2.195e-01   1.220e-01   0.000e+00
   2.683e-01   1.220e-01   0.000e+00
   3.171e-01   1.220e-01   0.000e+00
   3.659e-01   1.220e-01   0.000e+00
   4.146e-01   1.220e-01   0.000e+00
   4.634e-01   1.220e-01   0.000e+00
   5.122e-01   1.220e-01   0.000e+00
   5.610e-01   1.220e-01   0.000e+00
   6.098e-01   1.220e-01   0.000e+00
   6.585e-01   1.220e-01   0.000e+00
   7.073e-01   1.220e-01   0.000e+00
   7.561e-01   1.220e-01   0.000e+00
   8.049e-01   1.220e-01   0.000e+00
   8.537e-01   1.220e-01   0.000e+00
   9.024e-01   1.220e-01   0.000e+00
   9.512e-01   1.220e-01   0.000e+00
   1.000e+00   1.220e-01   0.000e+00
  -1.000e+00   1.707e-01   0.000e+00
  -9.512e-01   1.707e-01   0.000e+00
  -9.024e-01   1.707e-01   0.000e+00
  -8.537e-01   1.707e-01   0.000e+00
  -8.049e-01   1.707e-01   0.000e+00
  -7.561e-01   1.707e-01   0.000e+00
  -7.073e-01   1.707e-01   0.000e+00
  -6.585e-01   1.707e-01   0.000e+00
  -6.098e-01   1.707e-01   0.000e+00
  -5.610e-01   1.707e-01   0.000e+00
  -5.122e-01   1.707e-01   0.000e+00
  -4.634e-01   1.707e-01   0.000e+00
  -4.146e-01   1.707e-01   0.000e+00
  -3.659e-01   1.707e-01   0.000e+00
  -3.171e-01   1.707e-01   0.000e+00
  -2.683e-01   1.707e-01   0.000e+00
  -2.195e-01   1.707e-01   0.000e+00
  -1.707e-01   1.707e-01   0.000e+00
  -1.220e-01   1.707e-01   0.000e+00
  -7.317e-02   1.707e-01   0.000e+00
  -2.439e-02   1.707e-01   0.000e+00
   2.439e-02   1.707e-01   0.000e+00
   7.317e-02   1.707e-01   0.000e+00
   1.220e-01   1.707e-01   0.000e+00
   1.707e-01   1.707e-01   0.000e+00
   2.195e-01   1.707e-01   0.000e+00
   2.683e-01   1.707e-01   0.000e+00
   3.171e-01   1.707e-01   0.000e+00
   3.659e-01   1.707e-01   0.000e+00
   4.146e-01   1.707e-01   0.000e+00
   4.634e-01   1.707e-01   0.000e+00
   5.122e-01   1.707e-01   0.000e+00
   5.610e-01   1.707e-01   0.000e+00
   6.098e-01   1.707e-01   0.000e+00
   6.585e-01   1.707e-01   0.000e+00
   7.073e-01   1.707e-01   0.000e+00
   7.561e-01   1.707e-01   0.000e+00
   8.049e-01   1.707e-01   0.000e+00
   8.537e-01   1.707e-01   0.000e+00
   9.024e-01   1.707e-01   0.000e+00
   9.512e-01   1.707e-01   0.000e+00
   1.000e+00   1.707e-01   0.000e+00
  -1.000e+00   2.195e-01   0.000e+00
  -9.512e-01   2.195e-01   0.000e+00
  -9.024e-01   2.195e-01   0.000e+00
  -8.537e-01   2.195e-01   0.000e+00
  -8.049e-01   2.195e-01   0.000e+00
  -7.561e-01   2.195e-01   0.000e+00
  -7.073e-01   2.195e-01   0.000e+00
  -6.585e-01   2.195e-01   0.000e+00
  -6.098e-01   2.195e-01   0.000e+00
  -5.610e-01   2.195e-01   0.000e+00
  -5.122e-01   2.195e-01   0.000e+00
  -4.634e-01   2.195e-01   0.000e+00
  -4.146e-01   2.195e-01   0.000e+00
  -3.659e-01   2.195e-01   0.000e+00
  -3.171e-01   2.195e-01   0.000e+00
  -2.683e-01   2.195e-01   0.000e+00
  -2.195e-01   2.195e-01   0.000e+00
  -1.707e-01   2.195e-01   0.000e+00
  -1.220e-01   2.195e-01   0.000e+00
  -7.317e-02   2.195e-01   0.000e+00
  -2.439e-02   2.195e-01   0.000e+00
   2.439e-02   2.195e-01   0.000e+00
   7.317e-02   2.195e-01   0.000e+00
   1.220e-01   2.195e-01   0.000e+00
   1.707e-01   2.195e-01   0.000e+00
   2.195e-01   2.195e-01   0.000e+00
   2.683e-01   2.195e-01   0.000e+00
   3.171e-01   2.195e-01   0.000e+00
   3.659e-01   2.195e-01   0.000e+00
   4.146e-01   2.195e-01   0.000e+00
   4.634e-01   2.195e-01   0.000e+00
   5.122e-01   2.195e-01   0.000e+00
   5.610e-01   2.195e-01   0.000e+00
   6.098e-01   2.195e-01   0.000e+00
   6.585e-01   2.195e-01   0.000e+00
   7.073e-01   2.195e-01   0.000e+00
   7.561e-01   2.195e-01   0.000e+00
   8.049e-01   2.195e-01   0.000e+00
   8.537e-01   2.195e-01   0.000e+00
   9.024e-01   2.195e-01   0.000e+00
   9.512e-01   2.195e-01   0.000e+00
   1.000e+00   2.195e-01   0.000e+00
  -1.000e+00   2.683e-01   0.000e+00
  -9.512e-01   2.683e-01   0.000e+00
  -9.024e-01   2.683e-01   0.000e+00
  -8.537e-01   2.683e-01   0.000e+00
  -8.049e-01   2.683e-01   0.000e+00
  -7.561e-01   2.683e-01   0.000e+00
  -7.073e-01   2.683e-01   0.000e+00
  -6.585e-01   2.683e-01   0.000e+00
  -6.098e-01   2.683e-01   0.000e+00
  -5.610e-01   2.683e-01   0.000e+00
  -5.122e-01   2.683e-01   0.000e+00
  -4.634e-01   2.683e-01   0.000e+00
  -4.146e-01   2.683e-01   0.000e+00
  -3.659e-01   2.683e-01   0.000e+00
  -3.171e-01   2.683e-01   0.000e+00
  -2.683e-01   2.683e-01   0.000e+00
  -2.195e-01   2.683e-01   0.000e+00
  -1.707e-01   2.683e-01   0.000e+00
  -1.220e-01   2.683e-01   0.000e+00
  -7.317e-02   2.683e-01   0.000e+00
  -2.439e-02   2.683e-01   0.000e+00
   2.439e-02   2.683e-01   0.000e+00
   7.317e-02   2.683e-01   0.000e+00
   1.220e-01   2.683e-01   0.000e+00
   1.707e-01   2.683e-01   0.000e+00
   2.195e-01   2.683e-01   0.000e+00
   2.683e-01   2.683e-01   0.000e+00
   3.171e-01   2.683e-01   0.000e+00
   3.659e-01   2.683e-01   0.000e+00
   4.146e-01   2.683e-01   0.000e+00
   4.634e-01   2.683e-01   0.000e+00
   5.122e-01   2.683e-01   0.000e+00
   5.610e-01   2.683e-01   0.000e+00
   6.098e-01   2.683e-01   0.000e+00
   6.585e-01   2.683e-01   0.000e+00
   7.073e-01   2.683e-01   0.000e+00
   7.561e-01   2.683e-01   0.000e+00
   8.049e-01   2.683e-01   0.000e+00
   8.537e-01   2.683e-01   0.000e+00
   9.024e-01   2.683e-01   0.000e+00
   9.512e-01   2.683e-01   0.000e+00
   1.000e+00   2.683e-01   0.000e+00
  -1.000e+00   3.171e-01   0.000e+00
  -9.512e-01   3.171e-01   0.000e+00
  -9.024e-01   3.171e-01   0.000e+00
  -8.537e-01   3.171e-01   0.000e+00
  -8.049e-01   3.171e-01   0.000e+00
  -7.561e-01   3.171e-01   0.000e+00
  -7.073e-01   3.171e-01   0.000e+00
  -6.585e-01   3.171e-01   0.000e+00
  -6.098e-01   3.171e-01   0.000e+00
  -5.610e-01   3.171e-01   0.000e+00
  -5.122e-01   3.171e-01   0.000e+00
  -4.634e-01   3.171e-01   0.000e+00
  -4.146e-01   3.171e-01   0.000e+00
  -3.659e-01   3.171e-01   0.000e+00
  -3.171e-01   3.171e-01   0.000e+00
  -2.683e-01   3.171e-01   0.000e+00
  -2.195e-01   3.171e-01   0.000e+00
  -1.707e-01   3.171e-01   0.000e+00
  -1.220e-01   3.171e-01   0.000e+00
  -7.317e-02   3.171e-01   0.000e+00
  -2.439e-02   3.171e-01   0.000e+00
   2.439e-02   3.171e-01   0.000e+00
   7.317e-02   3.171e-01   0.000e+00
   1.220e-01   3.171e-01   0.000e+00
   1.707e-01   3.171e-01   0.000e+00
   2.195e-01   3.171e-01   0.000e+00
   2.683e-01   3.171e-01   0.000e+00
   3.171e-01   3.171e-01   0.000e+00
   3.659e-01   3.171e-01   0.000e+00
   4.146e-01   3.171e-01   0.000e+00
   4.634e-01   3.171e-01   0.000e+00
   5.122e-01   3.171e-01   0.000e+00
   5.610e-01   3.171e-01   0.000e+00
   6.098e-01   3.171e-01   0.000e+00
   6.585e-01   3.171e-01   0.000e+00
   7.073e-01   3.171e-01   0.000e+00
   7.561e-01   3.171e-01   0.000e+00
   8.049e-01   3.171e-01   0.000e+00
   8.537e-01   3.171e-01   0.000e+00
   9.024e-01   3.171e-01   0.000e+00
   9.512e-01   3.171e-01   0.000e+00
   1.000e+00   3.171e-01   0.000e+00
  -1.000e+00   3.659e-01   0.000e+00
  -9.512e-01   3.659e-01   0.000e+00
  -9.024e-01   3.659e-01   0.000e+00
  -8.537e-01   3.659e-01   0.000e+00
  -8.049e-01   3.659e-01   0.000e+00
  -7.561e-01   3.659e-01   0.000e+00
  -7.073e-01   3.659e-01   0.000e+00
  -6.585e-01   3.659e-01   0.000e+00
  -6.098e-01   3.659e-01   0.000e+00
  -5.610e-01   3.659e-01   0.000e+00
  -5.122e-01   3.659e-01   0.000e+00
  -4.634e-01   3.659e-01   0.000e+00
  -4.146e-01   3.659e-01   0.000e+00
  -3.659e-01   3.659e-01   0.000e+00
  -3.171e-01   3.659e-01   0.000e+00
  -2.683e-01   3.659e-01   0.000e+00
  -2.195e-01   3.659e-01   0.000e+00
  -1.707e-01   3.659e-01   0.000e+00
  -1.220e-01   3.659e-01   0.000e+00
  -7.317e-02   3.659e-01   0.000e+00
  -2.439e-02   3.659e-01   0.000e+00
   2.439e-02   3.659e-01   0.000e+00
   7.317e-02   3.659e-01   0.000e+00
   1.220e-01   3.659e-01   0.000e+00
   1.707e-01   3.659e-01   0.000e+00
   2.195e-01   3.659e-01   0.000e+00
   2.683e-01   3.659e-01   0.000e+00
   3.171e-01   3.659e-01   0.000e+00
   3.659e-01   3.659e-01   0.000e+00
   4.146e-01   3.659e-01   0.000e+00
   4.634e-01   3.659e-01   0.000e+00
   5.122e-01   3.659e-01   0.000e+00
   5.610e-01   3.659e-01   0.000e+00
   6.098e-01   3.659e-01   0.000e+00
   6.585e-01   3.659e-01   0.000e+00
   7.073e-01   3.659e-01   0.000e+00
   7.561e-01   3.659e-01   0.000e+00
   8.049e-01   3.659e-01   0.000e+00
   8.537e-01   3.659e-01   0.000e+00
   9.024e-01   3.659e-01   0.000e+00
   9.512e-01   3.659e-01   0.000e+00
   1.000e+00   3.659e-01   0.000e+00
  -1.000e+00   4.146e-01   0.000e+00
  -9.512e-01   4.146e-01   0.000e+00
  -9.024e-01   4.146e-01   0.000e+00
  -8.537e-01   4.146e-01   0.000e+00
  -8.049e-01   4.146e-01   0.000e+00
  -7.561e-01   4.146e-01   0.000e+00
  -7.073e-01   4.146e-01   0.000e+00
  -6.585e-01   4.146e-01   0.000e+00
  -6.098e-01   4.146e-01   0.000e+00
  -5.610e-01   4.146e-01   0.000e+00
  -5.122e-01   4.146e-01   0.000e+00
  -4.634e-01   4.146e-01   0.000e+00
  -4.146e-01   4.146e-01   0.000e+00
  -3.659e-01   4.146e-01   0.000e+00
  -3.171e-01   4.146e-01   0.000e+00
  -2.683e-01   4.146e-01   0.000e+00
  -2.195e-01   4.146e-01   0.000e+00
  -1.707e-01   4.146e-01   0.000e+00
  -1.220e-01   4.146e-01   0.000e+00
  -7.317e-02   4.146e-01   0.000e+00
  -2.439e-02   4.146e-01   0.000e+00
   2.439e-02   4.146e-01   0.000e+00
   7.317e-02   4.146e-01   0.000e+00
   1.220e-01   4.146e-01   0.000e+00
   1.707e-01   4.146e-01   0.000e+00
   2.195e-01   4.146e-01   0.000e+00
   2.683e-01   4.146e-01   0.000e+00
   3.171e-01   4.146e-01   0.000e+00
   3.659e-01   4.146e-01   0.000e+00
   4.146e-01   4.146e-01   0.000e+00
   4.634e-01   4.146e-01   0.000e+00
   5.122e-01   4.146e-01   0.000e+00
   5.610e-01   4.146e-01   0.000e+00
   6.098e-01   4.146e-01   0.000e+00
   6.585e-01   4.146e-01   0.000e+00
   7.073e-01   4.146e-01   0.000e+00
   7.561e-01   4.146e-01   0.000e+00
   8.049e-01   4.146e-01   0.000e+00
   8.537e-01   4.146e-01   0.000e+00
   9.024e-01   4.146e-01   0.000e+00
   9.512e-01   4.146e-01   0.000e+00
   1.000e+00   4.146e-01   0.000e+00
  -1.000e+00   4.634e-01   0.000e+00
  -9.512e-01   4.634e-01   0.000e+00
  -9.024e-01   4.634e-01   0.000e+00
  -8.537e-01   4.634e-01   0.000e+00
  -8.049e-01   4.634e-01   0.000e+00
  -7.561e-01   4.634e-01   0.000e+00
  -7.073e-01   4.634e-01   0.000e+00
  -6.585e-01   4.634e-01   0.000e+00
  -6.098e-01   4.634e-01   0.000e+00
  -5.610e-01   4.634e-01   0.000e+00
  -5.122e-01   4.634e-01   0.000e+00
  -4.634e-01   4.634e-01   0.000e+00
  -4.146e-01   4.634e-01   0.000e+00
  -3.659e-01   4.634e-01   0.000e+00
  -3.171e-01   4.634e-01   0.000e+00
  -2.683e-01   4.634e-01   0.000e+00
  -2.195e-01   4.634e-01   0.000e+00
  -1.707e-01   4.634e-01   0.000e+00
  -1.220e-01   4.634e-01   0.000e+00
  -7.317e-02   4.634e-01   0.000e+00
  -2.439e-02   4.634e-01   0.000e+00
   2.439e-02   4.634e-01   0.000e+00
   7.317e-02   4.634e-01   0.000e+00
   1.220e-01   4.634e-01   0.000e+00
   1.707e-01   4.634e-01   0.000e+00
   2.195e-01   4.634e-01   0.000e+00
   2.683e-01   4.634e-01   0.000e+00
   3.171e-01   4.634e-01   0.000e+00
   3.659e-01   4.634e-01   0.000e+00
   4.146e-01   4.634e-01   0.000e+00
   4.634e-01   4.634e-01   0.000e+00
   5.122e-01   4.634e-01   0.000e+00
   5.610e-01   4.634e-01   0.000e+00
   6.098e-01   4.634e-01   0.000e+00
   6.585e-01   4.634e-01   0.000e+00
   7.073e-01   4.634e-01   0.000e+00
   7.561e-01   4.634e-01   0.000e+00
   8.049e-01   4.634e-01   0.000e+00
   8.537e-01   4.634e-01   0.000e+00
   9.024e-01   4.634e-01   0.000e+00
   9.512e-01   4.634e-01   0.000e+00
   1.000e+00   4.634e-01   0.000e+00
  -1.000e+00   5.122e-01   0.000e+00
  -9.512e-01   5.122e-01   0.000e+00
  -9.024e-01   5.122e-01   0.000e+00
  -8.537e-01   5.122e-01   0.000e+00
  -8.049e-01   5.122e-01   0.000e+00
  -7.561e-01   5.122e-01   0.000e+00
  -7.073e-01   5.122e-01   0.000e+00
  -6.585e-01   5.122e-01   0.000e+00
  -6.098e-01   5.122e-01   0.000e+00
  -5.610e-01   5.122e-01   0.000e+00
  -5.122e-01   5.122e-01   0.000e+00
  -4.634e-01   5.122e-01   0.000e+00
  -4.146e-01   5.122e-01   0.000e+00
  -3.659e-01   5.122e-01   0.000e+00
  -3.171e-01   5.122e-01   0.000e+00
  -2.683e-01   5.122e-01   0.000e+00
  -2.195e-01   5.122e-01   0.000e+00
  -1.707e-01   5.122e-01   0.000e+00
  -1.220e-01   5.122e-01   0.000e+00
  -7.317e-02   5.122e-01   0.000e+00
  -2.439e-02   5.122e-01   0.000e+00
   2.439e-02   5.122e-01   0.000e+00
   7.317e-02   5.122e-01   0.000e+00
   1.220e-01   5.122e-01   0.000e+00
   1.707e-01   5.122e-01   0.000e+00
   2.195e-01   5.122e-01   0.000e+00
   2.683e-01   5.122e-01   0.000e+00
   3.171e-01   5.122e-01   0.000e+00
   3.659e-01   5.122e-01   0.000e+00
   4.146e-01   5.122e-01   0.000e+00
   4.634e-01   5.122e-01   0.000e+00
   5.122e-01   5.122e-01   0.000e+00
   5.610e-01   5.122e-01   0.000e+00
   6.098e-01   5.122e-01   0.000e+00
   6.585e-01   5.122e-01   0.000e+00
   7.073e-01   5.122e-01   0.000e+00
   7.561e-01   5.122e-01   0.000e+00
   8.049e-01   5.122e-01   0.000e+00
   8.537e-01   5.122e-01   0.000e+00
   9.024e-01   5.122e-01   0.000e+00
   9.512e-01   5.122e-01   0.000e+00
   1.000e+00   5.122e-01   0.000e+00
  -1.000e+00   5.610e-01   0.000e+00
  -9.512e-01   5.610e-01   0.000e+00
  -9.024e-01   5.610e-01   0.000e+00
  -8.537e-01   5.610e-01   0.000e+00
  -8.049e-01   5.610e-01   0.000e+00
  -7.561e-01   5.610e-01   0.000e+00
  -7.073e-01   5.610e-01   0.000e+00
  -6.585e-01   5.610e-01   0.000e+00
  -6.098e-01   5.610e-01   0.000e+00
  -5.610e-01   5.610e-01   0.000e+00
  -5.122e-01   5.610e-01   0.000e+00
  -4.634e-01   5.610e-01   0.000e+00
  -4.146e-01   5.610e-01   0.000e+00
  -3.659e-01   5.610e-01   0.000e+00
  -3.171e-01   5.610e-01   0.000e+00
  -2.683e-01   5.610e-01   0.000e+00
  -2.195e-01   5.610e-01   0.000e+00
  -1.707e-01   5.610e-01   0.000e+00
  -1.220e-01   5.610e-01   0.000e+00
  -7.317e-02   5.610e-01   0.000e+00
  -2.439e-02   5.610e-01   0.000e+00
   2.439e-02   5.610e-01   0.000e+00
   7.317e-02   5.610e-01   0.000e+00
   1.220e-01   5.610e-01   0.000e+00
   1.707e-01   5.610e-01   0.000e+00
   2.195e-01   5.610e-01   0.000e+00
   2.683e-01   5.610e-01   0.000e+00
   3.171e-01   5.610e-01   0.000e+00
   3.659e-01   5.610e-01   0.000e+00
   4.146e-01   5.610e-01   0.000e+00
   4.634e-01   5.610e-01   0.000e+00
   5.122e-01   5.610e-01   0.000e+00
   5.610e-01   5.610e-01   0.000e+00
   6.098e-01   5.610e-01   0.000e+00
   6.585e-01   5.610e-01   0.000e+00
   7.073e-01   5.610e-01   0.000e+00
   7.561e-01   5.610e-01   0.000e+00
   8.049e-01   5.610e-01   0.000e+00
   8.537e-01   5.610e-01   0.000e+00
   9.024e-01   5.610e-01   0.000e+00
   9.512e-01   5.610e-01   0.000e+00
   1.000e+00   5.610e-01   0.000e+00
  -1.000e+00   6.098e-01   0.000e+00
  -9.512e-01   6.098e-01   0.000e+00
  -9.024e-01   6.098e-01   0.000e+00
  -8.537e-01   6.098e-01   0.000e+00
  -8.049e-01   6.098e-01   0.000e+00
  -7.561e-01   6.098e-01   0.000e+00
  -7.073e-01   6.098e-01   0.000e+00
  -6.585e-01   6.098e-01   0.000e+00
  -6.098e-01   6.098e-01   0.000e+00
  -5.610e-01   6.098e-01   0.000e+00
  -5.122e-01   6.098e-01   0.000e+00
  -4.634e-01   6.098e-01   0.000e+00
  -4.146e-01   6.098e-01   0.000e+00
  -3.659e-01   6.098e-01   0.000e+00
  -3.171e-01   6.098e-01   0.000e+00
  -2.683e-01   6.098e-01   0.000e+00
  -2.195e-01   6.098e-01   0.000e+00
  -1.707e-01   6.098e-01   0.000e+00
  -1.220e-01   6.098e-01   0.000e+00
  -7.317e-02   6.098e-01   0.000e+00
  -2.439e-02   6.098e-01   0.000e+00
   2.439e-02   6.098e-01   0.000e+00
   7.317e-02   6.098e-01   0.000e+00
   1.220e-01   6.098e-01   0.000e+00
   1.707e-01   6.098e-01   0.000e+00
   2.195e-01   6.098e-01   0.000e+00
   2.683e-01   6.098e-01   0.000e+00
   3.171e-01   6.098e-01   0.000e+00
   3.659e-01   6.098e-01   0.000e+00
   4.146e-01   6.098e-01   0.000e+00
   4.634e-01   6.098e-01   0.000e+00
   5.122e-01   6.098e-01   0.000e+00
   5.610e-01   6.098e-01   0.000e+00
   6.098e-01   6.098e-01   0.000e+00
   6.585e-01   6.098e-01   0.000e+00
   7.073e-01   6.098e-01   0.000e+00
   7.561e-01   6.098e-01   0.000e+00
   8.049e-01   6.098e-01   0.000e+00
   8.537e-01   6.098e-01   0.000e+00
   9.024e-01   6.098e-01   0.000e+00
   9.512e-01   6.098e-01   0.000e+00
   1.000e+00   6.098e-01   0.000e+00
  -1.000e+00   6.585e-01   0.000e+00
  -9.512e-01   6.585e-01   0.000e+00
  -9.024e-01   6.585e-01   0.000e+00
  -8.537e-01   6.585e-01   0.000e+00
  -8.049e-01   6.585e-01   0.000e+00
  -7.561e-01   6.585e-01   0.000e+00
  -7.073e-01   6.585e-01   0.000e+00
  -6.585e-01   6.585e-01   0.000e+00
  -6.098e-01   6.585e-01   0.000e+00
  -5.610e-01   6.585e-01   0.000e+00
  -5.122e-01   6.585e-01   0.000e+00
  -4.634e-01   6.585e-01   0.000e+00
  -4.146e-01   6.585e-01   0.000e+00
  -3.659e-01   6.585e-01   0.000e+00
  -3.171e-01   6.585e-01   0.000e+00
  -2.683e-01   6.585e-01   0.000e+00
  -2.195e-01   6.585e-01   0.000e+00
  -1.707e-01   6.585e-01   0.000e+00
  -1.220e-01   6.585e-01   0.000e+00
  -7.317e-02   6.585e-01   0.000e+00
  -2.439e-02   6.585e-01   0.000e+00
   2.439e-02   6.585e-01   0.000e+00
   7.317e-02   6.585e-01   0.000e+00
   1.220e-01   6.585e-01   0.000e+00
   1.707e-01   6.585e-01   0.000e+00
   2.195e-01   6.585e-01   0.000e+00
   2.683e-01   6.585e-01   0.000e+00
   3.171e-01   6.585e-01   0.000e+00
   3.659e-01   6.585e-01   0.000e+00
   4.146e-01   6.585e-01   0.000e+00
   4.634e-01   6.585e-01   0.000e+00
   5.122e-01   6.585e-01   0.000e+00
   5.610e-01   6.585e-01   0.000e+00
   6.098e-01   6.585e-01   0.000e+00
   6.585e-01   6.585e-01   0.000e+00
   7.073e-01   6.585e-01   0.000e+00
   7.561e-01   6.585e-01   0.000e+00
   8.049e-01   6.585e-01   0.000e+00
   8.537e-01   6.585e-01   0.000e+00
   9.024e-01   6.585e-01   0.000e+00
   9.512e-01   6.585e-01   0.000e+00
   1.000e+00   6.585e-01   0.000e+00
  -1.000e+00   7.073e-01   0.000e+00
  -9.512e-01   7.073e-01   0.000e+00
  -9.024e-01   7.073e-01   0.000e+00
  -8.537e-01   7.073e-01   0.000e+00
  -8.049e-01   7.073e-01   0.000e+00
  -7.561e-01   7.073e-01   0.000e+00
  -7.073e-01   7.073e-01   0.000e+00
  -6.585e-01   7.073e-01   0.000e+00
  -6.098e-01   7.073e-01   0.000e+00
  -5.610e-01   7.073e-01   0.000e+00
  -5.122e-01   7.073e-01   0.000e+00
  -4.634e-01   7.073e-01   0.000e+00
  -4.146e-01   7.073e-01   0.000e+00
  -3.659e-01   7.073e-01   0.000e+00
  -3.171e-01   7.073e-01   0.000e+00
  -2.683e-01   7.073e-01   0.000e+00
  -2.195e-01   7.073e-01   0.000e+00
  -1.707e-01   7.073e-01   0.000e+00
  -1.220e-01   7.073e-01   0.000e+00
  -7.317e-02   7.073e-01   0.000e+00
  -2.439e-02   7.073e-01   0.000e+00
   2.439e-02   7.073e-01   0.000e+00
   7.317e-02   7.073e-01   0.000e+00
   1.220e-01   7.073e-01   0.000e+00
   1.707e-01   7.073e-01   0.000e+00
   2.195e-01   7.073e-01   0.000e+00
   2.683e-01   7.073e-01   0.000e+00
   3.171e-01   7.073e-01   0.000e+00
   3.659e-01   7.073e-01   0.000e+00
   4.146e-01   7.073e-01   0.000e+00
   4.634e-01   7.073e-01   0.000e+00
   5.122e-01   7.073e-01   0.000e+00
   5.610e-01   7.073e-01   0.000e+00
   6.098e-01   7.073e-01   0.000e+00
   6.585e-01   7.073e-01   0.000e+00
   7.073e-01   7.073e-01   0.000e+00
   7.561e-01   7.073e-01   0.000e+00
   8.049e-01   7.073e-01   0.000e+00
   8.537e-01   7.073e-01   0.000e+00
   9.024e-01   7.073e-01   0.000e+00
   9.512e-01   7.073e-01   0.000e+00
   1.000e+00   7.073e-01   0.000e+00
  -1.000e+00   7.561e-01   0.000e+00
  -9.512e-01   7.561e-01   0.000e+00
  -9.024e-01   7.561e-01   0.000e+00
  -8.537e-01   7.561e-01   0.000e+00
  -8.049e-01   7.561e-01   0.000e+00
  -7.561e-01   7.561e-01   0.000e+00
  -7.073e-01   7.561e-01   0.000e+00
  -6.585e-01   7.561e-01   0.000e+00
  -6.098e-01   7.561e-01   0.000e+00
  -5.610e-01   7.561e-01   0.000e+00
  -5.122e-01   7.561e-01   0.000e+00
  -4.634e-01   7.561e-01   0.000e+00
  -4.146e-01   7.561e-01   0.000e+00
  -3.659e-01   7.561e-01   0.000e+00
  -3.171e-01   7.561e-01   0.000e+00
  -2.683e-01   7.561e-01   0.000e+00
  -2.195e-01   7.561e-01   0.000e+00
  -1.707e-01   7.561e-01   0.000e+00
  -1.220e-01   7.561e-01   0.000e+00
  -7.317e-02   7.561e-01   0.000e+00
  -2.439e-02   7.561e-01   0.000e+00
   2.439e-02   7.561e-01   0.000e+00
   7.317e-02   7.561e-01   0.000e+00
   1.220e-01   7.561e-01   0.000e+00
   1.707e-01   7.561e-01   0.000e+00
   2.195e-01   7.561e-01   0.000e+00
   2.683e-01   7.561e-01   0.000e+00
   3.171e-01   7.561e-01   0.000e+00
   3.659e-01   7.561e-01   0.000e+00
   4.146e-01   7.561e-01   0.000e+00
   4.634e-01   7.561e-01   0.000e+00
   5.122e-01   7.561e-01   0.000e+00
   5.610e-01   7.561e-01   0.000e+00
   6.098e-01   7.561e-01   0.000e+00
   6.585e-01   7.561e-01   0.000e+00
   7.073e-01   7.561e-01   0.000e+00
   7.561e-01   7.561e-01   0.000e+00
   8.049e-01   7.561e-01   0.000e+00
   8.537e-01   7.561e-01   0.000e+00
   9.024e-01   7.561e-01   0.000e+00
   9.512e-01   7.561e-01   0.000e+00
   1.000e+00   7.561e-01   0.000e+00
  -1.000e+00   8.049e-01   0.000e+00
  -9.512e-01   8.049e-01   0.000e+00
  -9.024e-01   8.049e-01   0.000e+00
  -8.537e-01   8.049e-01   0.000e+00
  -8.049e-01   8.049e-01   0.000e+00
  -7.561e-01   8.049e-01   0.000e+00
  -7.073e-01   8.049e-01   0.000e+00
  -6.585e-01   8.049e-01   0.000e+00
  -6.098e-01   8.049e-01   0.000e+00
  -5.610e-01   8.049e-01   0.000e+00
  -5.122e-01   8.049e-01   0.000e+00
  -4.634e-01   8.049e-01   0.000e+00
  -4.146e-01   8.049e-01   0.000e+00
  -3.659e-01   8.049e-01   0.000e+00
  -3.171e-01   8.049e-01   0.000e+00
  -2.683e-01   8.049e-01   0.000e+00
  -2.195e-01   8.049e-01   0.000e+00
  -1.707e-01   8.049e-01   0.000e+00
  -1.220e-01   8.049e-01   0.000e+00
  -7.317e-02   8.049e-01   0.000e+00
  -2.439e-02   8.049e-01   0.000e+00
   2.439e-02   8.049e-01   0.000e+00
   7.317e-02   8.049e-01   0.000e+00
   1.220e-01   8.049e-01   0.000e+00
   1.707e-01   8.049e-01   0.000e+00
   2.195e-01   8.049e-01   0.000e+00
   2.683e-01   8.049e-01   0.000e+00
   3.171e-01   8.049e-01   0.000e+00
   3.659e-01   8.049e-01   0.000e+00
   4.146e-01   8.049e-01   0.000e+00
   4.634e-01   8.049e-01   0.000e+00
   5.122e-01   8.049e-01   0.000e+00
   5.610e-01   8.049e-01   0.000e+00
   6.098e-01   8.049e-01   0.000e+00
   6.585e-01   8.049e-01   0.000e+00
   7.073e-01   8.049e-01   0.000e+00
   7.561e-01   8.049e-01   0.000e+00
   8.049e-01   8.049e-01   0.000e+00
   8.537e-01   8.049e-01   0.000e+00
   9.024e-01   8.049e-01   0.000e+00
   9.512e-01   8.049e-01   0.000e+00
   1.000e+00   8.049e-01   0.000e+00
  -1.000e+00   8.537e-01   0.000e+00
  -9.512e-01   8.537e-01   0.000e+00
  -9.024e-01   8.537e-01   0.000e+00
  -8.537e-01   8.537e-01   0.000e+00
  -8.049e-01   8.537e-01   0.000e+00
  -7.561e-01   8.537e-01   0.000e+00
  -7.073e-01   8.537e-01   0.000e+00
  -6.585e-01   8.537e-01   0.000e+00
  -6.098e-01   8.537e-01   0.000e+00
  -5.610e-01   8.537e-01   0.000e+00
  -5.122e-01   8.537e-01   0.000e+00
  -4.634e-01   8.537e-01   0.000e+00
  -4.146e-01   8.537e-01   0.000e+00
  -3.659e-01   8.537e-01   0.000e+00
  -3.171e-01   8.537e-01   0.000e+00
  -2.683e-01   8.537e-01   0.000e+00
  -2.195e-01   8.537e-01   0.000e+00
  -1.707e-01   8.537e-01   0.000e+00
  -1.220e-01   8.537e-01   0.000e+00
  -7.317e-02   8.537e-01   0.000e+00
  -2.439e-02   8.537e-01   0.000e+00
   2.439e-02   8.537e-01   0.000e+00
   7.317e-02   8.537e-01   0.000e+00
   1.220e-01   8.537e-01   0.000e+00
   1.707e-01   8.537e-01   0.000e+00
   2.195e-01   8.537e-01   0.000e+00
   2.683e-01   8.537e-01   0.000e+00
   3.171e-01   8.537e-01   0.000e+00
   3.659e-01   8.537e-01   0.000e+00
   4.146e-01   8.537e-01   0.000e+00
   4.634e-01   8.537e-01   0.000e+00
   5.122e-01   8.537e-01   0.000e+00
   5.610e-01   8.537e-01   0.000e+00
   6.098e-01   8.537e-01   0.000e+00
   6.585e-01   8.537e-01   0.000e+00
   7.073e-01   8.537e-01   0.000e+00
   7.561e-01   8.537e-01   0.000e+00
   8.049e-01   8.537e-01   0.000e+00
   8.537e-01   8.537e-01   0.000e+00
   9.024e-01   8.537e-01   0.000e+00
   9.512e-01   8.537e-01   0.000e+00
   1.000e+00   8.537e-01   0.000e+00
  -1.000e+00   9.024e-01   0.000e+00
  -9.512e-01   9.024e-01   0.000e+00
  -9.024e-01   9.024e-01   0.000e+00
  -8.537e-01   9.024e-01   0.000e+00
  -8.049e-01   9.024e-01   0.000e+00
  -7.561e-01   9.024e-01   0.000e+00
  -7.073e-01   9.024e-01   0.000e+00
  -6.585e-01   9.024e-01   0.000e+00
  -6.098e-01   9.024e-01   0.000e+00
  -5.610e-01   9.024e-01   0.000e+00
  -5.122e-01   9.024e-01   0.000e+00
  -4.634e-01   9.024e-01   0.000e+00
  -4.146e-01   9.024e-01   0.000e+00
  -3.659e-01   9.024e-01   0.000e+00
  -3.171e-01   9.024e-01   0.000e+00
  -2.683e-01   9.024e-01   0.000e+00
  -2.195e-01   9.024e-01   0.000e+00
  -1.707e-01   9.024e-01   0.000e+00
  -1.220e-01   9.024e-01   0.000e+00
  -7.317e-02   9.024e-01   0.000e+00
  -2.439e-02   9.024e-01   0.000e+00
   2.439e-02   9.024e-01   0.000e+00
   7.317e-02   9.024e-01   0.000e+00
   1.220e-01   9.024e-01   0.000e+00
   1.707e-01   9.024e-01   0.000e+00
   2.195e-01   9.024e-01   0.000e+00
   2.683e-01   9.024e-01   0.000e+00
   3.171e-01   9.024e-01   0.000e+00
   3.659e-01   9.024e-01   0.000e+00
   4.146e-01   9.024e-01   0.000e+00
   4.634e-01   9.024e-01   0.000e+00
   5.122e-01   9.024e-01   0.000e+00
   5.610e-01   9.024e-01   0.000e+00
   6.098e-01   9.024e-01   0.000e+00
   6.585e-01   9.024e-01   0.000e+00
   7.073e-01   9.024e-01   0.000e+00
   7.561e-01   9.024e-01   0.000e+00
   8.049e-01   9.024e-01   0.000e+00
   8.537e-01   9.024e-01   0.000e+00
   9.024e-01   9.024e-01   0.000e+00
   9.512e-01   9.024e-01   0.000e+00
   1.000e+00   9.024e-01   0.000e+00
  -1.000e+00   9.512e-01   0.000e+00
  -9.512e-01   9.512e-01   0.000e+00
  -9.024e-01   9.512e-01   0.000e+00
  -8.537e-01   9.512e-01   0.000e+00
  -8.049e-01   9.512e-01   0.000e+00
  -7.561e-01   9.512e-01   0.000e+00
  -7.073e-01   9.512e-01   0.000e+00
  -6.585e-01   9.512e-01   0.000e+00
  -6.098e-01   9.512e-01   0.000e+00
  -5.610e-01   9.512e-01   0.000e+00
  -5.122e-01   9.512e-01   0.000e+00
  -4.634e-01   9.512e-01   0.000e+00
  -4.146e-01   9.512e-01   0.000e+00
  -3.659e-01   9.512e-01   0.000e+00
  -3.171e-01   9.512e-01   0.000e+00
  -2.683e-01   9.512e-01   0.000e+00
  -2.195e-01   9.512e-01   0.000e+00
  -1.707e-01   9.512e-01   0.000e+00
  -1.220e-01   9.512e-01   0.000e+00
  -7.317e-02   9.512e-01   0.000e+00
  -2.439e-02   9.512e-01   0.000e+00
   2.439e-02   9.512e-01   0.000e+00
   7.317e-02   9.512e-01   0.000e+00
   1.220e-01   9.512e-01   0.000e+00
   1.707e-01   9.512e-01   0.000e+00
   2.195e-01   9.512e-01   0.000e+00
   2.683e-01   9.512e-01   0.000e+00
   3.171e-01   9.512e-01   0.000e+00
   3.659e-01   9.512e-01   0.000e+00
   4.146e-01   9.512e-01   0.000e+00
   4.634e-01   9.512e-01   0.000e+00
   5.122e-01   9.512e-01   0.000e+00
   5.610e-01   9.512e-01   0.000e+00
   6.098e-01   9.512e-01   0.000e+00
   6.585e-01   9.512e-01   0.000e+00
   7.073e-01   9.512e-01   0.000e+00
   7.561e-01   9.512e-01   0.000e+00
   8.049e-01   9.512e-01   0.000e+00
   8.537e-01   9.512e-01   0.000e+00
   9.024e-01   9.512e-01   0.000e+00
   9.512e-01   9.512e-01   0.000e+00
   1.000e+00   9.512e-01   0.000e+00
  -1.000e+00   1.000e+00   0.000e+00
  -9.512e-01   1.000e+00   0.000e+00
  -9.024e-01   1.000e+00   0.000e+00
  -8.537e-01   1.000e+00   0.000e+00
  -8.049e-01   1.000e+00   0.000e+00
  -7.561e-01   1.000e+00   0.000e+00
  -7.073e-01   1.000e+00   0.000e+00
  -6.585e-01   1.000e+00   0.000e+00
  -6.098e-01   1.000e+00   0.000e+00
  -5.610e-01   1.000e+00   0.000e+00
  -5.122e-01   1.000e+00   0.000e+00
  -4.634e-01   1.000e+00   0.000e+00
  -4.146e-01   1.000e+00   0.000e+00
  -3.659e-01   1.000e+00   0.000e+00
  -3.171e-01   1.000e+00   0.000e+00
  -2.683e-01   1.000e+00   0.000e+00
  -2.195e-01   1.000e+00   0.000e+00
  -1.707e-01   1.000e+00   0.000e+00
  -1.220e-01   1.000e+00   0.000e+00
  -7.317e-02   1.000e+00   0.000e+00
  -2.439e-02   1.000e+00   0.000e+00
   2.439e-02   1.000e+00   0.000e+00
   7.317e-02   1.000e+00   0.000e+00
   1.220e-01   1.000e+00   0.000e+00
   1.707e-01   1.000e+00   0.000e+00
   2.195e-01   1.000e+00   0.000e+00
   2.683e-01   1.000e+00   0.000e+00
   3.171e-01   1.000e+00   0.000e+00
   3.659e-01   1.000e+00   0.000e+00
   4.146e-01   1.000e+00   0.000e+00
   4.634e-01   1.000e+00   0.000e+00
   5.122e-01   1.000e+00   0.000e+00
   5.610e-01   1.000e+00   0.000e+00
   6.098e-01   1.000e+00   0.000e+00
   6.585e-01   1.000e+00   0.000e+00
   7.073e-01   1.000e+00   0.000e+00
   7.561e-01   1.000e+00   0.000e+00
   8.049e-01   1.000e+00   0.000e+00
   8.537e-01   1.000e+00   0.000e+00
   9.024e-01   1.000e+00   0.000e+00
   9.512e-01   1.000e+00   0.000e+00
   1.000e+00   1.000e+00   0.000e+00
  -1.707e-01  -4.697e-01   0.000e+00
  -1.864e-01  -4.634e-01   0.000e+00
  -1.707e-01  -4.697e-01   0.000e+00
  -1.864e-01  -4.634e-01   0.000e+00
  -1.707e-01  -4.697e-01   0.000e+00
  -1.220e-01  -4.843e-01   0.000e+00
  -1.707e-01  -4.697e-01   0.000e+00
  -1.220e-01  -4.843e-01   0.000e+00
  -1.220e-01  -4.843e-01   0.000e+00
  -7.317e-02  -4.941e-01   0.000e+00
  -1.220e-01  -4.843e-01   0.000e+00
  -7.317e-02  -4.941e-01   0.000e+00
  -7.317e-02  -4.941e-01   0.000e+00
  -2.439e-02  -4.989e-01   0.000e+00
  -7.317e-02  -4.941e-01   0.000e+00
  -2.439e-02  -4.989e-01   0.000e+00
  -2.439e-02  -4.989e-01   0.000e+00
   2.439e-02  -4.989e-01   0.000e+00
  -2.439e-02  -4.989e-01   0.000e+00
   2.439e-02  -4.989e-01   0.000e+00
   2.439e-02  -4.989e-01   0.000e+00
   7.317e-02  -4.941e-01   0.000e+00
   2.439e-02  -4.989e-01   0.000e+00
   7.317e-02  -4.941e-01   0.000e+00
   7.317e-02  -4.941e-01   0.000e+00
   1.220e-01  -4.843e-01   0.000e+00
   7.317e-02  -4.941e-01   0.000e+00
   1.220e-01  -4.843e-01   0.000e+00
   1.220e-01  -4.843e-01   0.000e+00
   1.707e-01  -4.697e-01   0.000e+00
   1.220e-01  -4.843e-01   0.000e+00
   1.707e-01  -4.697e-01   0.000e+00
   1.707e-01  -4.697e-01   0.000e+00
   1.864e-01  -4.634e-01   0.000e+00
   1.707e-01  -4.697e-01   0.000e+00
   1.864e-01  -4.634e-01   0.000e+00
  -2.683e-01  -4.216e-01   0.000e+00
  -2.787e-01  -4.146e-01   0.000e+00
  -2.683e-01  -4.216e-01   0.000e+00
  -2.787e-01  -4.146e-01   0.000e+00
  -2.683e-01  -4.216e-01   0.000e+00
  -2.195e-01  -4.487e-01   0.000e+00
  -2.683e-01  -4.216e-01   0.000e+00
  -2.195e-01  -4.487e-01   0.000e+00
  -1.864e-01  -4.634e-01   0.000e+00
  -2.195e-01  -4.487e-01   0.000e+00
  -1.864e-01  -4.634e-01   0.000e+00
  -2.195e-01  -4.487e-01   0.000e+00
   1.864e-01  -4.634e-01   0.000e+00
   2.195e-01  -4.487e-01   0.000e+00
   1.864e-01  -4.634e-01   0.000e+00
   2.195e-01  -4.487e-01   0.000e+00
   2.195e-01  -4.487e-01   0.000e+00
   2.683e-01  -4.216e-01   0.000e+00
   2.195e-01  -4.487e-01   0.000e+00
   2.683e-01  -4.216e-01   0.000e+00
   2.683e-01  -4.216e-01   0.000e+00
   2.787e-01  -4.146e-01   0.000e+00
   2.683e-01  -4.216e-01   0.000e+00
   2.787e-01  -4.146e-01   0.000e+00
  -3.171e-01  -3.859e-01   0.000e+00
  -3.399e-01  -3.659e-01   0.000e+00
  -3.171e-01  -3.859e-01   0.000e+00
  -3.399e-01  -3.659e-01   0.000e+00
  -2.787e-01  -4.146e-01   0.000e+00
  -3.171e-01  -3.859e-01   0.000e+00
  -2.787e-01  -4.146e-01   0.000e+00
  -3.171e-01  -3.859e-01   0.000e+00
   2.787e-01  -4.146e-01   0.000e+00
   3.171e-01  -3.859e-01   0.000e+00
   2.787e-01  -4.146e-01   0.000e+00
   3.171e-01  -3.859e-01   0.000e+00
   3.171e-01  -3.859e-01   0.000e+00
   3.399e-01  -3.659e-01   0.000e+00
   3.171e-01  -3.859e-01   0.000e+00
   3.399e-01  -3.659e-01   0.000e+00
  -3.659e-01  -3.399e-01   0.000e+00
  -3.859e-01  -3.171e-01   0.000e+00
  -3.659e-01  -3.399e-01   0.000e+00
  -3.859e-01  -3.171e-01   0.000e+00
  -3.399e-01  -3.659e-01   0.000e+00
  -3.659e-01  -3.399e-01   0.000e+00
  -3.399e-01  -3.659e-01   0.000e+00
  -3.659e-01  -3.399e-01   0.000e+00
   3.399e-01  -3.659e-01   0.000e+00
   3.659e-01  -3.399e-01   0.000e+00
   3.399e-01  -3.659e-01   0.000e+00
   3.659e-01  -3.399e-01   0.000e+00
   3.659e-01  -3.399e-01   0.000e+00
   3.859e-01  -3.171e-01   0.000e+00
   3.659e-01  -3.399e-01   0.000e+00
   3.859e-01  -3.171e-01   0.000e+00
  -4.146e-01  -2.787e-01   0.000e+00
  -4.216e-01  -2.683e-01   0.000e+00
  -4.146e-01  -2.787e-01   0.000e+00
  -4.216e-01  -2.683e-01   0.000e+00
  -3.859e-01  -3.171e-01   0.000e+00
  -4.146e-01  -2.787e-01   0.000e+00
  -3.859e-01  -3.171e-01   0.000e+00
  -4.146e-01  -2.787e-01   0.000e+00
   3.859e-01  -3.171e-01   0.000e+00
   4.146e-01  -2.787e-01   0.000e+00
   3.859e-01  -3.171e-01   0.000e+00
   4.146e-01  -2.787e-01   0.000e+00
   4.146e-01  -2.787e-01   0.000e+00
   4.216e-01  -2.683e-01   0.000e+00
   4.146e-01  -2.787e-01   0.000e+00
   4.216e-01  -2.683e-01   0.000e+00
  -4.216e-01  -2.683e-01   0.000e+00
  -4.487e-01  -2.195e-01   0.000e+00
  -4.216e-01  -2.683e-01   0.000e+00
  -4.487e-01  -2.195e-01   0.000e+00
   4.216e-01  -2.683e-01   0.000e+00
   4.487e-01  -2.195e-01   0.000e+00
   4.216e-01  -2.683e-01   0.000e+00
   4.487e-01  -2.195e-01   0.000e+00
  -4.634e-01  -1.864e-01   0.000e+00
  -4.697e-01  -1.707e-01   0.000e+00
  -4.634e-01  -1.864e-01   0.000e+00
  -4.697e-01  -1.707e-01   0.000e+00
  -4.487e-01  -2.195e-01   0.000e+00
  -4.634e-01  -1.864e-01   0.000e+00
  -4.487e-01  -2.195e-01   0.000e+00
  -4.634e-01  -1.864e-01   0.000e+00
   4.487e-01  -2.195e-01   0.000e+00
   4.634e-01  -1.864e-01   0.000e+00
   4.487e-01  -2.195e-01   0.000e+00
   4.634e-01  -1.864e-01   0.000e+00
   4.634e-01  -1.864e-01   0.000e+00
   4.697e-01  -1.707e-01   0.000e+00
   4.634e-01  -1.864e-01   0.000e+00
   4.697e-01  -1.707e-01   0.000e+00
  -4.697e-01  -1.707e-01   0.000e+00
  -4.843e-01  -1.220e-01   0.000e+00
  -4.697e-01  -1.707e-01   0.000e+00
  -4.843e-01  -1.220e-01   0.000e+00
   4.697e-01  -1.707e-01   0.000e+00
   4.843e-01  -1.220e-01   0.000e+00
   4.697e-01  -1.707e-01   0.000e+00
   4.843e-01  -1.220e-01   0.000e+00
  -4.843e-01  -1.220e-01   0.000e+00
  -4.941e-01  -7.317e-02   0.000e+00
  -4.843e-01  -1.220e-01   0.000e+00
  -4.941e-01  -7.317e-02   0.000e+00
   4.843e-01  -1.220e-01   0.000e+00
   4.941e-01  -7.317e-02   0.000e+00
   4.843e-01  -1.220e-01   0.000e+00
   4.941e-01  -7.317e-02   0.000e+00
  -4.941e-01  -7.317e-02   0.000e+00
  -4.989e-01  -2.439e-02   0.000e+00
  -4.941e-01  -7.317e-02   0.000e+00
  -4.989e-01  -2.439e-02   0.000e+00
   4.941e-01  -7.317e-02   0.000e+00
   4.989e-01  -2.439e-02   0.000e+00
   4.941e-01  -7.317e-02   0.000e+00
   4.989e-01  -2.439e-02   0.000e+00
  -4.989e-01  -2.439e-02   0.000e+00
  -4.989e-01   2.439e-02   0.000e+00
  -4.989e-01  -2.439e-02   0.000e+00
  -4.989e-01   2.439e-02   0.000e+00
   4.989e-01  -2.439e-02   0.000e+00
   4.989e-01   2.439e-02   0.000e+00
   4.989e-01  -2.439e-02   0.000e+00
   4.989e-01   2.439e-02   0.000e+00
  -4.989e-01   2.439e-02   0.000e+00
  -4.941e-01   7.317e-02   0.000e+00
  -4.989e-01   2.439e-02   0.000e+00
  -4.941e-01   7.317e-02   0.000e+00
   4.989e-01   2.439e-02   0.000e+00
   4.941e-01   7.317e-02   0.000e+00
   4.989e-01   2.439e-02   0.000e+00
   4.941e-01   7.317e-02   0.000e+00
  -4.941e-01   7.317e-02   0.000e+00
  -4.843e-01   1.220e-01   0.000e+00
  -4.941e-01   7.317e-02   0.000e+00
  -4.843e-01   1.220e-01   0.000e+00
   4.941e-01   7.317e-02   0.000e+00
   4.843e-01   1.220e-01   0.000e+00
   4.941e-01   7.317e-02   0.000e+00
   4.843e-01   1.220e-01   0.000e+00
  -4.843e-01   1.220e-01   0.000e+00
  -4.697e-01   1.707e-01   0.000e+00
  -4.843e-01   1.220e-01   0.000e+00
  -4.697e-01   1.707e-01   0.000e+00
   4.843e-01   1.220e-01   0.000e+00
   4.697e-01   1.707e-01   0.000e+00
   4.843e-01   1.220e-01   0.000e+00
   4.697e-01   1.707e-01   0.000e+00
  -4.697e-01   1.707e-01   0.000e+00
  -4.634e-01   1.864e-01   0.000e+00
  -4.697e-01   1.707e-01   0.000e+00
  -4.634e-01   1.864e-01   0.000e+00
  -4.634e-01   1.864e-01   0.000e+00
  -4.487e-01   2.195e-01   0.000e+00
  -4.634e-01   1.864e-01   0.000e+00
  -4.487e-01   2.195e-01   0.000e+00
   4.634e-01   1.864e-01   0.000e+00
   4.487e-01   2.195e-01   0.000e+00
   4.634e-01   1.864e-01   0.000e+00
   4.487e-01   2.195e-01   0.000e+00
   4.697e-01   1.707e-01   0.000e+00
   4.634e-01   1.864e-01   0.000e+00
   4.697e-01   1.707e-01   0.000e+00
   4.634e-01   1.864e-01   0.000e+00
  -4.487e-01   2.195e-01   0.000e+00
  -4.216e-01   2.683e-01   0.000e+00
  -4.487e-01   2.195e-01   0.000e+00
  -4.216e-01   2.683e-01   0.000e+00
   4.487e-01   2.195e-01   0.000e+00
   4.216e-01   2.683e-01   0.000e+00
   4.487e-01   2.195e-01   0.000e+00
   4.216e-01   2.683e-01   0.000e+00
  -4.216e-01   2.683e-01   0.000e+00
  -4.146e-01   2.787e-01   0.000e+00
  -4.216e-01   2.683e-01   0.000e+00
  -4.146e-01   2.787e-01   0.000e+00
  -4.146e-01   2.787e-01   0.000e+00
  -3.859e-01   3.171e-01   0.000e+00
  -4.146e-01   2.787e-01   0.000e+00
  -3.859e-01   3.171e-01   0.000e+00
   4.146e-01   2.787e-01   0.000e+00
   3.859e-01   3.171e-01   0.000e+00
   4.146e-01   2.787e-01   0.000e+00
   3.859e-01   3.171e-01   0.000e+00
   4.216e-01   2.683e-01   0.000e+00
   4.146e-01   2.787e-01   0.000e+00
   4.216e-01   2.683e-01   0.000e+00
   4.146e-01   2.787e-01   0.000e+00
  -3.859e-01   3.171e-01   0.000e+00
  -3.659e-01   3.399e-01   0.000e+00
  -3.859e-01   3.171e-01   0.000e+00
  -3.659e-01   3.399e-01   0.000e+00
  -3.659e-01   3.399e-01   0.000e+00
  -3.399e-01   3.659e-01   0.000e+00
  -3.659e-01   3.399e-01   0.000e+00
  -3.399e-01   3.659e-01   0.000e+00
   3.659e-01   3.399e-01   0.000e+00
   3.399e-01   3.659e-01   0.000e+00
   3.659e-01   3.399e-01   0.000e+00
   3.399e-01   3.659e-01   0.000e+00
   3.859e-01   3.171e-01   0.000e+00
   3.659e-01   3.399e-01   0.000e+00
   3.859e-01   3.171e-01   0.000e+00
   3.659e-01   3.399e-01   0.000e+00
  -3.399e-01   3.659e-01   0.000e+00
  -3.171e-01   3.859e-01   0.000e+00
  -3.399e-01   3.659e-01   0.000e+00
  -3.171e-01   3.859e-01   0.000e+00
  -3.171e-01   3.859e-01   0.000e+00
  -2.787e-01   4.146e-01   0.000e+00
  -3.171e-01   3.859e-01   0.000e+00
  -2.787e-01   4.146e-01   0.000e+00
   3.171e-01   3.859e-01   0.000e+00
   2.787e-01   4.146e-01   0.000e+00
   3.171e-01   3.859e-01   0.000e+00
   2.787e-01   4.146e-01   0.000e+00
   3.399e-01   3.659e-01   0.000e+00
   3.171e-01   3.859e-01   0.000e+00
   3.399e-01   3.659e-01   0.000e+00
   3.171e-01   3.859e-01   0.000e+00
  -2.787e-01   4.146e-01   0.000e+00
  -2.683e-01   4.216e-01   0.000e+00
  -2.787e-01   4.146e-01   0.000e+00
  -2.683e-01   4.216e-01   0.000e+00
  -2.683e-01   4.216e-01   0.000e+00
  -2.195e-01   4.487e-01   0.000e+00
  -2.683e-01   4.216e-01   0.000e+00
  -2.195e-01   4.487e-01   0.000e+00
  -2.195e-01   4.487e-01   0.000e+00
  -1.864e-01   4.634e-01   0.000e+00
  -2.195e-01   4.487e-01   0.000e+00
  -1.864e-01   4.634e-01   0.000e+00
   2.195e-01   4.487e-01   0.000e+00
   1.864e-01   4.634e-01   0.000e+00
   2.195e-01   4.487e-01   0.000e+00
   1.864e-01   4.634e-01   0.000e+00
   2.195e-01   4.487e-01   0.000e+00
   2.683e-01   4.216e-01   0.000e+00
   2.195e-01   4.487e-01   0.000e+00
   2.683e-01   4.216e-01   0.000e+00
   2.787e-01   4.146e-01   0.000e+00
   2.683e-01   4.216e-01   0.000e+00
   2.787e-01   4.146e-01   0.000e+00
   2.683e-01   4.216e-01   0.000e+00
  -1.864e-01   4.634e-01   0.000e+00
  -1.707e-01   4.697e-01   0.000e+00
  -1.864e-01   4.634e-01   0.000e+00
  -1.707e-01   4.697e-01   0.000e+00
  -1.707e-01   4.697e-01   0.000e+00
  -1.220e-01   4.843e-01   0.000e+00
  -1.707e-01   4.697e-01   0.000e+00
  -1.220e-01   4.843e-01   0.000e+00
  -1.220e-01   4.843e-01   0.000e+00
  -7.317e-02   4.941e-01   0.000e+00
  -1.220e-01   4.843e-01   0.000e+00
  -7.317e-02   4.941e-01   0.000e+00
  -7.317e-02   4.941e-01   0.000e+00
  -2.439e-02   4.989e-01   0.000e+00
  -7.317e-02   4.941e-01   0.000e+00
  -2.439e-02   4.989e-01   0.000e+00
  -2.439e-02   4.989e-01   0.000e+00
   2.439e-02   4.989e-01   0.000e+00
  -2.439e-02   4.989e-01   0.000e+00
   2.439e-02   4.989e-01   0.000e+00
   2.439e-02   4.989e-01   0.000e+00
   7.317e-02   4.941e-01   0.000e+00
   2.439e-02   4.989e-01   0.000e+00
   7.317e-02   4.941e-01   0.000e+00
   7.317e-02   4.941e-01   0.000e+00
   1.220e-01   4.843e-01   0.000e+00
   7.317e-02   4.941e-01   0.000e+00
   1.220e-01   4.843e-01   0.000e+00
   1.220e-01   4.843e-01   0.000e+00
   1.707e-01   4.697e-01   0.000e+00
   1.220e-01   4.843e-01   0.000e+00
   1.707e-01   4.697e-01   0.000e+00
   1.864e-01   4.634e-01   0.000e+00
   1.707e-01   4.697e-01   0.000e+00
   1.864e-01   4.634e-01   0.000e+00
   1.707e-01   4.697e-01   0.000e+00

CELLS 1761 8805
         4         0         1        43        42
         4         1         2        44        43
         4         2         3        45        44
         4         3         4        46        45
         4         4         5        47        46
         4         5         6        48        47
         4         6         7        49        48
         4         7         8        50        49
         4         8         9        51        50
         4         9        10        52        51
         4        10        11        53        52
         4        11        12        54        53
         4        12        13        55        54
         4        13        14        56        55
         4        14        15        57        56
         4        15        16        58        57
         4        16        17        59        58
         4        17        18        60        59
         4        18        19        61        60
         4        19        20        62        61
         4        20        21        63        62
         4        21        22        64        63
         4        22        23        65        64
         4        23        24        66        65
         4        24        25        67        66
         4        25        26        68        67
         4        26        27        69        68
         4        27        28        70        69
         4        28        29        71        70
         4        29        30        72        71
         4        30        31        73        72
         4        31        32        74        73
         4        32        33        75        74
         4        33        34        76        75
         4        34        35        77        76
         4        35        36        78        77
         4        36        37        79        78
         4        37        38        80        79
         4        38        39        81        80
         4        39        40        82        81
         4        40        41        83        82
         4        42        43        85        84
         4        43        44        86        85
         4        44        45        87        86
         4        45        46        88        87
         4        46        47        89        88
         4        47        48        90        89
         4        48        49        91        90
         4        49        50        92        91
         4        50        51        93        92
         4        51        52        94        93
         4        52        53        95        94
         4        53        54        96        95
         4        54        55        97        96
         4        55        56        98        97
         4        56        57        99        98
         4        57        58       100        99
         4        58        59       101       100
         4        59        60       102       101
         4        60        61       103       102
         4        61        62       104       103
         4        62        63       105       104
         4        63        64       106       105
         4        64        65       107       106
         4        65        66       108       107
         4        66        67       109       108
         4        67        68       110       109
         4        68        69       111       110
         4        69        70       112       111
         4        70        71       113       112
         4        71        72       114       113
         4        72        73       115       114
         4        73        74       116       115
         4        74        75       117       116
         4        75        76       118       117
         4        76        77       119       118
         4        77        78       120       119
         4        78        79       121       120
         4        79        80       122       121
         4        80        81       123       122
         4        81        82       124       123
         4        82        83       125       124
         4        84        85       127       126
         4        85        86       128       127
         4        86        87       129       128
         4        87        88       130       129
         4        88        89       131       130
         4        89        90       132       131
         4        90        91       133       132
         4        91        92       134       133
         4        92        93       135       134
         4        93        94       136       135
         4        94        95       137       136
         4        95        96       138       137
         4        96        97       139       138
         4        97        98       140       139
         4        98        99       141       140
         4        99       100       142       141
         4       100       101       143       142
         4       101       102       144       143
         4       102       103       145       144
         4       103       104       146       145
         4       104       105       147       146
         4       105       106       148       147
         4       106       107       149       148
         4       107       108       150       149
         4       108       109       151       150
         4       109       110       152       151
         4       110       111       153       152
         4       111       112       154       153
         4       112       113       155       154
         4       113       114       156       155
         4       114       115       157       156
         4       115       116       158       157
         4       116       117       159       158
         4       117       118       160       159
         4       118       119       161       160
         4       119       120       162       161
         4       120       121       163       162
         4       121       122       164       163
         4       122       123       165       164
         4       123       124       166       165
         4       124       125       167       166
         4       126       127       169       168
         4       127       128       170       169
         4       128       129       171       170
         4       129       130       172       171
         4       130       131       173       172
         4       131       132       174       173
         4       132       133       175       174
         4       133       134       176       175
         4       134       135       177       176
         4       135       136       178       177
         4       136       137       179       178
         4       137       138       180       179
         4       138       139       181       180
         4       139       140       182       181
         4       140       141       183       182
         4       141       142       184       183
         4       142       143       185       184
         4       143       144       186       185
         4       144       145       187       186
         4       145       146       188       187
         4       146       147       189       188
         4       147       148       190       189
         4       148       149       191       190
         4       149       150       192       191
         4       150       151       193       192
         4       151       152       194       193
         4       152       153       195       194
         4       153       154       196       195
         4       154       155       197       196
         4       155       156       198       197
         4       156       157       199       198
         4       157       158       200       199
         4       158       159       201       200
         4       159       160       202       201
         4       160       161       203       202
         4       161       162       204       203
         4       162       163       205       204
         4       163       164       206       205
         4       164       165       207       206
         4       165       166       208       207
         4       166       167       209       208
         4       168       169       211       210
         4       169       170       212       211
         4       170       171       213       212
         4       171       172       214       213
         4       172       173       215       214
         4       173       174       216       215
         4       174       175       217       216
         4       175       176       218       217
         4       176       177       219       218
         4       177       178       220       219
         4       178       179       221       220
         4       179       180       222       221
         4       180       181       223       222
         4       181       182       224       223
         4       182       183       225       224
         4       183       184       226       225
         4       184       185       227       226
         4       185       186       228       227
         4       186       187       229       228
         4       187       188       230       229
         4       188       189       231       230
         4       189       190       232       231
         4       190       191       233       232
         4       191       192       234       233
         4       192       193       235       234
         4       193       194       236       235
         4       194       195       237       236
         4       195       196       238       237
         4       196       197       239       238
         4       197       198       240       239
         4       198       199       241       240
         4       199       200       242       241
         4       200       201       243       242
         4       201       202       244       243
         4       202       203       245       244
         4       203       204       246       245
         4       204       205       247       246
         4       205       206       248       247
         4       206       207       249       248
         4       207       208       250       249
         4       208       209       251       250
         4       210       211       253       252
         4       211       212       254       253
         4       212       213       255       254
         4       213       214       256       255
         4       214       215       257       256
         4       215       216       258       257
         4       216       217       259       258
         4       217       218       260       259
         4       218       219       261       260
         4       219       220       262       261
         4       220       221       263       262
         4       221       222       264       263
         4       222       223       265       264
         4       223       224       266       265
         4       224       225       267       266
         4       225       226       268       267
         4       226       227       269       268
         4       227       228       270       269
         4       228       229       271       270
         4       229       230       272       271
         4       230       231       273       272
         4       231       232       274       273
         4       232       233       275       274
         4       233       234       276       275
         4       234       235       277       276
         4       235       236       278       277
         4       236       237       279       278
         4       237       238       280       279
         4       238       239       281       280
         4       239       240       282       281
         4       240       241       283       282
         4       241       242       284       283
         4       242       243       285       284
         4       243       244       286       285
         4       244       245       287       286
         4       245       246       288       287
         4       246       247       289       288
         4       247       248       290       289
         4       248       249       291       290
         4       249       250       292       291
         4       250       251       293       292
         4       252       253       295       294
         4       253       254       296       295
         4       254       255       297       296
         4       255       256       298       297
         4       256       257       299       298
         4       257       258       300       299
         4       258       259       301       300
         4       259       260       302       301
         4       260       261       303       302
         4       261       262       304       303
         4       262       263       305       304
         4       263       264       306       305
         4       264       265       307       306
         4       265       266       308       307
         4       266       267       309       308
         4       267       268       310       309
         4       268       269       311       310
         4       269       270       312       311
         4       270       271       313       312
         4       271       272       314       313
         4       272       273       315       314
         4       273       274       316       315
         4       274       275       317       316
         4       275       276       318       317
         4       276       277       319       318
         4       277       278       320       319
         4       278       279       321       320
         4       279       280       322       321
         4       280       281       323       322
         4       281       282       324       323
         4       282       283       325       324
         4       283       284       326       325
         4       284       285       327       326
         4       285       286       328       327
         4       286       287       329       328
         4       287       288       330       329
         4       288       289       331       330
         4       289       290       332       331
         4       290       291       333       332
         4       291       292       334       333
         4       292       293       335       334
         4       294       295       337       336
         4       295       296       338       337
         4       296       297       339       338
         4       297       298       340       339
         4       298       299       341       340
         4       299       300       342       341
         4       300       301       343       342
         4       301       302       344       343
         4       302       303       345       344
         4       303       304       346       345
         4       304       305       347       346
         4       305       306       348       347
         4       306       307       349       348
         4       307       308       350       349
         4       308       309       351       350
         4       309       310       352       351
         4       310       311       353       352
         4       311       312       354       353
         4       312       313       355       354
         4       313       314       356       355
         4       314       315       357       356
         4       315       316       358       357
         4       316       317       359       358
         4       317       318       360       359
         4       318       319       361       360
         4       319       320       362       361
         4       320       321       363       362
         4       321       322       364       363
         4       322       323       365       364
         4       323       324       366       365
         4       324       325       367       366
         4       325       326       368       367
         4       326       327       369       368
         4       327       328       370       369
         4       328       329       371       370
         4       329       330       372       371
         4       330       331       373       372
         4       331       332       374       373
         4       332       333       375       374
         4       333       334       376       375
         4       334       335       377       376
         4       336       337       379       378
         4       337       338       380       379
         4       338       339       381       380
         4       339       340       382       381
         4       340       341       383       382
         4       341       342       384       383
         4       342       343       385       384
         4       343       344       386       385
         4       344       345       387       386
         4       345       346       388       387
         4       346       347       389       388
         4       347       348       390       389
         4       348       349       391       390
         4       349       350       392       391
         4       350       351       393       392
         4       351       352       394       393
         4       352       353       395       394
         4       353       354       396       395
         4       354       355       397       396
         4       355       356       398       397
         4       356       357       399       398
         4       357       358       400       399
         4       358       359       401       400
         4       359       360       402       401
         4       360       361       403       402
         4       361       362       404       403
         4       362       363       405       404
         4       363       364       406       405
         4       364       365       407       406
         4       365       366       408       407
         4       366       367       409       408
         4       367       368       410       409
         4       368       369       411       410
         4       369       370       412       411
         4       370       371       413       412
         4       371       372       414       413
         4       372       373       415       414
         4       373       374       416       415
         4       374       375       417       416
         4       375       376       418       417
         4       376       377       419       418
         4       378       379       421       420
         4       379       380       422       421
         4       380       381       423       422
         4       381       382       424       423
         4       382       383       425       424
         4       383       384       426       425
         4       384       385       427       426
         4       385       386       428       427
         4       386       387       429       428
         4       387       388       430       429
         4       388       389       431       430
         4       389       390       432       431
         4       390       391       433       432
         4       391       392       434       433
         4       392       393       435       434
         4       393       394       436       435
         4       394       395       437       436
         4       395       396       438       437
         4       396       397       439       438
         4       397       398       440       439
         4       398       399       441       440
         4       399       400       442       441
         4       400       401       443       442
         4       401       402       444       443
         4       402       403       445       444
         4       403       404       446       445
         4       404       405       447       446
         4       405       406       448       447
         4       406       407       449       448
         4       407       408       450       449
         4       408       409       451       450
         4       409       410       452       451
         4       410       411       453       452
         4       411       412       454       453
         4       412       413       455       454
         4       413       414       456       455
         4       414       415       457       456
         4       415       416       458       457
         4       416       417       459       458
         4       417       418       460       459
         4       418       419       461       460
         4       420       421       463       462
         4       421       422       464       463
         4       422       423       465       464
         4       423       424       466       465
         4       424       425       467       466
         4       425       426       468       467
         4       426       427       469       468
         4       427       428       470       469
         4       428       429       471       470
         4       429       430       472       471
         4       430       431       473       472
         4       431       432       474       473
         4       432       433       475       474
         4       433       434       476       475
         4       434       435       477       476
         4       435       436       478       477
         3      1764      1765       479
         5       436       437      1766      1767       478
         4      1768      1769       480       479
         4       437       438      1771      1770
         4      1772      1773       481       480
         4       438       439      1775      1774
         4      1776      1777       482       481
         4       439       440      1779      1778
         4      1780      1781       483       482
         4       440       441      1783      1782
         4      1784      1785       484       483
         4       441       442      1787      1786
         4      1788      1789       485       484
         4       442       443      1791      1790
         4      1792      1793       486       485
         4       443       444      1795      1794
         3      1796      1797       486
         5       444       445       487      1799      1798
         4       445       446       488       487
         4       446       447       489       488
         4       447       448       490       489
         4       448       449       491       490
         4       449       450       492       491
         4       450       451       493       492
         4       451       452       494       493
         4       452       453       495       494
         4       453       454       496       495
         4       454       455       497       496
         4       455       456       498       497
         4       456       457       499       498
         4       457       458       500       499
         4       458       459       501       500
         4       459       460       502       501
         4       460       461       503       502
         4       462       463       505       504
         4       463       464       506       505
         4       464       465       507       506
         4       465       466       508       507
         4       466       467       509       508
         4       467       468       510       509
         4       468       469       511       510
         4       469       470       512       511
         4       470       471       513       512
         4       471       472       514       513
         4       472       473       515       514
         4       473       474       516       515
         4       474       475       517       516
         4       475       476       518       517
         3      1800      1801       519
         5       476       477      1802      1803       518
         4      1804      1805       520       519
         4       477       478      1807      1806
         5      1808       479       521       520      1809
         3       478      1810      1811
         4       479       480       522       521
         4       480       481       523       522
         4       481       482       524       523
         4       482       483       525       524
         4       483       484       526       525
         4       484       485       527       526
         4       485       486       528       527
         5       486      1812      1813       529       528
         3      1814      1815       487
         4      1816      1817       530       529
         4       487       488      1819      1818
         3      1820      1821       530
         5       488       489       531      1823      1822
         4       489       490       532       531
         4       490       491       533       532
         4       491       492       534       533
         4       492       493       535       534
         4       493       494       536       535
         4       494       495       537       536
         4       495       496       538       537
         4       496       497       539       538
         4       497       498       540       539
         4       498       499       541       540
         4       499       500       542       541
         4       500       501       543       542
         4       501       502       544       543
         4       502       503       545       544
         4       504       505       547       546
         4       505       506       548       547
         4       506       507       549       548
         4       507       508       550       549
         4       508       509       551       550
         4       509       510       552       551
         4       510       511       553       552
         4       511       512       554       553
         4       512       513       555       554
         4       513       514       556       555
         4       514       515       557       556
         4       515       516       558       557
         4       516       517       559       558
         3      1824      1825       560
         5       517       518      1826      1827       559
         5      1828       519       561       560      1829
         3       518      1830      1831
         4       519       520       562       561
         4       520       521       563       562
         4       521       522       564       563
         4       522       523       565       564
         4       523       524       566       565
         4       524       525       567       566
         4       525       526       568       567
         4       526       527       569       568
         4       527       528       570       569
         4       528       529       571       570
         4       529       530       572       571
         5       530      1832      1833       573       572
         3      1834      1835       531
         3      1836      1837       573
         5       531       532       574      1839      1838
         4       532       533       575       574
         4       533       534       576       575
         4       534       535       577       576
         4       535       536       578       577
         4       536       537       579       578
         4       537       538       580       579
         4       538       539       581       580
         4       539       540       582       581
         4       540       541       583       582
         4       541       542       584       583
         4       542       543       585       584
         4       543       544       586       585
         4       544       545       587       586
         4       546       547       589       588
         4       547       548       590       589
         4       548       549       591       590
         4       549       550       592       591
         4       550       551       593       592
         4       551       552       594       593
         4       552       553       595       594
         4       553       554       596       595
         4       554       555       597       596
         4       555       556       598       597
         4       556       557       599       598
         4       557       558       600       599
         3      1840      1841       601
         5       558       559      1842      1843       600
         5      1844       560       602       601      1845
         3       559      1846      1847
         4       560       561       603       602
         4       561       562       604       603
         4       562       563       605       604
         4       563       564       606       605
         4       564       565       607       606
         4       565       566       608       607
         4       566       567       609       608
         4       567       568       610       609
         4       568       569       611       610
         4       569       570       612       611
         4       570       571       613       612
         4       571       572       614       613
         4       572       573       615       614
         5       573      1848      1849       616       615
         3      1850      1851       574
         3      1852      1853       616
         5       574       575       617      1855      1854
         4       575       576       618       617
         4       576       577       619       618
         4       577       578       620       619
         4       578       579       621       620
         4       579       580       622       621
         4       580       581       623       622
         4       581       582       624       623
         4       582       583       625       624
         4       583       584       626       625
         4       584       585       627       626
         4       585       586       628       627
         4       586       587       629       628
         4       588       589       631       630
         4       589       590       632       631
         4       590       591       633       632
         4       591       592       634       633
         4       592       593       635       634
         4       593       594       636       635
         4       594       595       637       636
         4       595       596       638       637
         4       596       597       639       638
         4       597       598       640       639
         4       598       599       641       640
         3      1856      1857       642
         5       599       600      1858      1859       641
         5      1860       601       643       642      1861
         3       600      1862      1863
         4       601       602       644       643
         4       602       603       645       644
         4       603       604       646       645
         4       604       605       647       646
         4       605       606       648       647
         4       606       607       649       648
         4       607       608       650       649
         4       608       609       651       650
         4       609       610       652       651
         4       610       611       653       652
         4       611       612       654       653
         4       612       613       655       654
         4       613       614       656       655
         4       614       615       657       656
         4       615       616       658       657
         5       616      1864      1865       659       658
         3      1866      1867       617
         3      1868      1869       659
         5       617       618       660      1871      1870
         4       618       619       661       660
         4       619       620       662       661
         4       620       621       663       662
         4       621       622       664       663
         4       622       623       665       664
         4       623       624       666       665
         4       624       625       667       666
         4       625       626       668       667
         4       626       627       669       668
         4       627       628       670       669
         4       628       629       671       670
         4       630       631       673       672
         4       631       632       674       673
         4       632       633       675       674
         4       633       634       676       675
         4       634       635       677       676
         4       635       636       678       677
         4       636       637       679       678
         4       637       638       680       679
         4       638       639       681       680
         4       639       640       682       681
         4       640       641       683       682
         4      1872       642       684      1873
         4       641      1874      1875       683
         4       642       643       685       684
         4       643       644       686       685
         4       644       645       687       686
         4       645       646       688       687
         4       646       647       689       688
         4       647       648       690       689
         4       648       649       691       690
         4       649       650       692       691
         4       650       651       693       692
         4       651       652       694       693
         4       652       653       695       694
         4       653       654       696       695
         4       654       655       697       696
         4       655       656       698       697
         4       656       657       699       698
         4       657       658       700       699
         4       658       659       701       700
         4       659      1876      1877       701
         4      1878       660       702      1879
         4       660       661       703       702
         4       661       662       704       703
         4       662       663       705       704
         4       663       664       706       705
         4       664       665       707       706
         4       665       666       708       707
         4       666       667       709       708
         4       667       668       710       709
         4       668       669       711       710
         4       669       670       712       711
         4       670       671       713       712
         4       672       673       715       714
         4       673       674       716       715
         4       674       675       717       716
         4       675       676       718       717
         4       676       677       719       718
         4       677       678       720       719
         4       678       679       721       720
         4       679       680       722       721
         4       680       681       723       722
         4       681       682       724       723
         3      1880      1881       725
         5       682       683      1882      1883       724
         5      1884       684       726       725      1885
         3       683      1886      1887
         4       684       685       727       726
         4       685       686       728       727
         4       686       687       729       728
         4       687       688       730       729
         4       688       689       731       730
         4       689       690       732       731
         4       690       691       733       732
         4       691       692       734       733
         4       692       693       735       734
         4       693       694       736       735
         4       694       695       737       736
         4       695       696       738       737
         4       696       697       739       738
         4       697       698       740       739
         4       698       699       741       740
         4       699       700       742       741
         4       700       701       743       742
         5       701      1888      1889       744       743
         3      1890      1891       702
         3      1892      1893       744
         5       702       703       745      1895      1894
         4       703       704       746       745
         4       704       705       747       746
         4       705       706       748       747
         4       706       707       749       748
         4       707       708       750       749
         4       708       709       751       750
         4       709       710       752       751
         4       710       711       753       752
         4       711       712       754       753
         4       712       713       755       754
         4       714       715       757       756
         4       715       716       758       757
         4       716       717       759       758
         4       717       718       760       759
         4       718       719       761       760
         4       719       720       762       761
         4       720       721       763       762
         4       721       722       764       763
         4       722       723       765       764
         4       723       724       766       765
         4      1896       725       767      1897
         4       724      1898      1899       766
         4       725       726       768       767
         4       726       727       769       768
         4       727       728       770       769
         4       728       729       771       770
         4       729       730       772       771
         4       730       731       773       772
         4       731       732       774       773
         4       732       733       775       774
         4       733       734       776       775
         4       734       735       777       776
         4       735       736       778       777
         4       736       737       779       778
         4       737       738       780       779
         4       738       739       781       780
         4       739       740       782       781
         4       740       741       783       782
         4       741       742       784       783
         4       742       743       785       784
         4       743       744       786       785
         4       744      1900      1901       786
         4      1902       745       787      1903
         4       745       746       788       787
         4       746       747       789       788
         4       747       748       790       789
         4       748       749       791       790
         4       749       750       792       791
         4       750       751       793       792
         4       751       752       794       793
         4       752       753       795       794
         4       753       754       796       795
         4       754       755       797       796
         4       756       757       799       798
         4       757       758       800       799
         4       758       759       801       800
         4       759       760       802       801
         4       760       761       803       802
         4       761       762       804       803
         4       762       763       805       804
         4       763       764       806       805
         4       764       765       807       806
         4       765       766       808       807
         4      1904       767       809      1905
         4       766      1906      1907       808
         4       767       768       810       809
         4       768       769       811       810
         4       769       770       812       811
         4       770       771       813       812
         4       771       772       814       813
         4       772       773       815       814
         4       773       774       816       815
         4       774       775       817       816
         4       775       776       818       817
         4       776       777       819       818
         4       777       778       820       819
         4       778       779       821       820
         4       779       780       822       821
         4       780       781       823       822
         4       781       782       824       823
         4       782       783       825       824
         4       783       784       826       825
         4       784       785       827       826
         4       785       786       828       827
         4       786      1908      1909       828
         4      1910       787       829      1911
         4       787       788       830       829
         4       788       789       831       830
         4       789       790       832       831
         4       790       791       833       832
         4       791       792       834       833
         4       792       793       835       834
         4       793       794       836       835
         4       794       795       837       836
         4       795       796       838       837
         4       796       797       839       838
         4       798       799       841       840
         4       799       800       842       841
         4       800       801       843       842
         4       801       802       844       843
         4       802       803       845       844
         4       803       804       846       845
         4       804       805       847       846
         4       805       806       848       847
         4       806       807       849       848
         4       807       808       850       849
         4      1912       809       851      1913
         4       808      1914      1915       850
         4       809       810       852       851
         4       810       811       853       852
         4       811       812       854       853
         4       812       813       855       854
         4       813       814       856       855
         4       814       815       857       856
         4       815       816       858       857
         4       816       817       859       858
         4       817       818       860       859
         4       818       819       861       860
         4       819       820       862       861
         4       820       821       863       862
         4       821       822       864       863
         4       822       823       865       864
         4       823       824       866       865
         4       824       825       867       866
         4       825       826       868       867
         4       826       827       869       868
         4       827       828       870       869
         4       828      1916      1917       870
         4      1918       829       871      1919
         4       829       830       872       871
         4       830       831       873       872
         4       831       832       874       873
         4       832       833       875       874
         4       833       834       876       875
         4       834       835       877       876
         4       835       836       878       877
         4       836       837       879       878
         4       837       838       880       879
         4       838       839       881       880
         4       840       841       883       882
         4       841       842       884       883
         4       842       843       885       884
         4       843       844       886       885
         4       844       845       887       886
         4       845       846       888       887
         4       846       847       889       888
         4       847       848       890       889
         4       848       849       891       890
         4       849       850       892       891
         4      1920       851       893      1921
         4       850      1922      1923       892
         4       851       852       894       893
         4       852       853       895       894
         4       853       854       896       895
         4       854       855       897       896
         4       855       856       898       897
         4       856       857       899       898
         4       857       858       900       899
         4       858       859       901       900
         4       859       860       902       901
         4       860       861       903       902
         4       861       862       904       903
         4       862       863       905       904
         4       863       864       906       905
         4       864       865       907       906
         4       865       866       908       907
         4       866       867       909       908
         4       867       868       910       909
         4       868       869       911       910
         4       869       870       912       911
         4       870      1924      1925       912
         4      1926       871       913      1927
         4       871       872       914       913
         4       872       873       915       914
         4       873       874       916       915
         4       874       875       917       916
         4       875       876       918       917
         4       876       877       919       918
         4       877       878       920       919
         4       878       879       921       920
         4       879       880       922       921
         4       880       881       923       922
         4       882       883       925       924
         4       883       884       926       925
         4       884       885       927       926
         4       885       886       928       927
         4       886       887       929       928
         4       887       888       930       929
         4       888       889       931       930
         4       889       890       932       931
         4       890       891       933       932
         4       891       892       934       933
         4      1928       893       935      1929
         4       892      1930      1931       934
         4       893       894       936       935
         4       894       895       937       936
         4       895       896       938       937
         4       896       897       939       938
         4       897       898       940       939
         4       898       899       941       940
         4       899       900       942       941
         4       900       901       943       942
         4       901       902       944       943
         4       902       903       945       944
         4       903       904       946       945
         4       904       905       947       946
         4       905       906       948       947
         4       906       907       949       948
         4       907       908       950       949
         4       908       909       951       950
         4       909       910       952       951
         4       910       911       953       952
         4       911       912       954       953
         4       912      1932      1933       954
         4      1934       913       955      1935
         4       913       914       956       955
         4       914       915       957       956
         4       915       916       958       957
         4       916       917       959       958
         4       917       918       960       959
         4       918       919       961       960
         4       919       920       962       961
         4       920       921       963       962
         4       921       922       964       963
         4       922       923       965       964
         4       924       925       967       966
         4       925       926       968       967
         4       926       927       969       968
         4       927       928       970       969
         4       928       929       971       970
         4       929       930       972       971
         4       930       931       973       972
         4       931       932       974       973
         4       932       933       975       974
         4       933       934       976       975
         4      1936       935       977      1937
         4       934      1938      1939       976
         4       935       936       978       977
         4       936       937       979       978
         4       937       938       980       979
         4       938       939       981       980
         4       939       940       982       981
         4       940       941       983       982
         4       941       942       984       983
         4       942       943       985       984
         4       943       944       986       985
         4       944       945       987       986
         4       945       946       988       987
         4       946       947       989       988
         4       947       948       990       989
         4       948       949       991       990
         4       949       950       992       991
         4       950       951       993       992
         4       951       952       994       993
         4       952       953       995       994
         4       953       954       996       995
         4       954      1940      1941       996
         4      1942       955       997      1943
         4       955       956       998       997
         4       956       957       999       998
         4       957       958      1000       999
         4       958       959      1001      1000
         4       959       960      1002      1001
         4       960       961      1003      1002
         4       961       962      1004      1003
         4       962       963      1005      1004
         4       963       964      1006      1005
         4       964       965      1007      1006
         4       966       967      1009      1008
         4       967       968      1010      1009
         4       968       969      1011      1010
         4       969       970      1012      1011
         4       970       971      1013      1012
         4       971       972      1014      1013
         4       972       973      1015      1014
         4       973       974      1016      1015
         4       974       975      1017      1016
         4       975       976      1018      1017
         4      1944       977      1019      1945
         4       976      1946      1947      1018
         4       977       978      1020      1019
         4       978       979      1021      1020
         4       979       980      1022      1021
         4       980       981      1023      1022
         4       981       982      1024      1023
         4       982       983      1025      1024
         4       983       984      1026      1025
         4       984       985      1027      1026
         4       985       986      1028      1027
         4       986       987      1029      1028
         4       987       988      1030      1029
         4       988       989      1031      1030
         4       989       990      1032      1031
         4       990       991      1033      1032
         4       991       992      1034      1033
         4       992       993      1035      1034
         4       993       994      1036      1035
         4       994       995      1037      1036
         4       995       996      1038      1037
         4       996      1948      1949      1038
         4      1950       997      1039      1951
         4       997       998      1040      1039
         4       998       999      1041      1040
         4       999      1000      1042      1041
         4      1000      1001      1043      1042
         4      1001      1002      1044      1043
         4      1002      1003      1045      1044
         4      1003      1004      1046      1045
         4      1004      1005      1047      1046
         4      1005      1006      1048      1047
         4      1006      1007      1049      1048
         4      1008      1009      1051      1050
         4      1009      1010      1052      1051
         4      1010      1011      1053      1052
         4      1011      1012      1054      1053
         4      1012      1013      1055      1054
         4      1013      1014      1056      1055
         4      1014      1015      1057      1056
         4      1015      1016      1058      1057
         4      1016      1017      1059      1058
         4      1017      1018      1060      1059
         3      1952      1953      1019
         5      1018      1954      1955      1061      1060
         5      1019      1020      1062      1957      1956
         3      1958      1959      1061
         4      1020      1021      1063      1062
         4      1021      1022      1064      1063
         4      1022      1023      1065      1064
         4      1023      1024      1066      1065
         4      1024      1025      1067      1066
         4      1025      1026      1068      1067
         4      1026      1027      1069      1068
         4      1027      1028      1070      1069
         4      1028      1029      1071      1070
         4      1029      1030      1072      1071
         4      1030      1031      1073      1072
         4      1031      1032      1074      1073
         4      1032      1033      1075      1074
         4      1033      1034      1076      1075
         4      1034      1035      1077      1076
         4      1035      1036      1078      1077
         4      1036      1037      1079      1078
         5      1037      1038      1960      1961      1079
         3      1962      1963      1080
         3      1038      1964      1965
         5      1966      1039      1081      1080      1967
         4      1039      1040      1082      1081
         4      1040      1041      1083      1082
         4      1041      1042      1084      1083
         4      1042      1043      1085      1084
         4      1043      1044      1086      1085
         4      1044      1045      1087      1086
         4      1045      1046      1088      1087
         4      1046      1047      1089      1088
         4      1047      1048      1090      1089
         4      1048      1049      1091      1090
         4      1050      1051      1093      1092
         4      1051      1052      1094      1093
         4      1052      1053      1095      1094
         4      1053      1054      1096      1095
         4      1054      1055      1097      1096
         4      1055      1056      1098      1097
         4      1056      1057      1099      1098
         4      1057      1058      1100      1099
         4      1058      1059      1101      1100
         4      1059      1060      1102      1101
         4      1060      1061      1103      1102
         4      1968      1062      1104      1969
         4      1061      1970      1971      1103
         4      1062      1063      1105      1104
         4      1063      1064      1106      1105
         4      1064      1065      1107      1106
         4      1065      1066      1108      1107
         4      1066      1067      1109      1108
         4      1067      1068      1110      1109
         4      1068      1069      1111      1110
         4      1069      1070      1112      1111
         4      1070      1071      1113      1112
         4      1071      1072      1114      1113
         4      1072      1073      1115      1114
         4      1073      1074      1116      1115
         4      1074      1075      1117      1116
         4      1075      1076      1118      1117
         4      1076      1077      1119      1118
         4      1077      1078      1120      1119
         4      1078      1079      1121      1120
         4      1079      1972      1973      1121
         4      1974      1080      1122      1975
         4      1080      1081      1123      1122
         4      1081      1082      1124      1123
         4      1082      1083      1125      1124
         4      1083      1084      1126      1125
         4      1084      1085      1127      1126
         4      1085      1086      1128      1127
         4      1086      1087      1129      1128
         4      1087      1088      1130      1129
         4      1088      1089      1131      1130
         4      1089      1090      1132      1131
         4      1090      1091      1133      1132
         4      1092      1093      1135      1134
         4      1093      1094      1136      1135
         4      1094      1095      1137      1136
         4      1095      1096      1138      1137
         4      1096      1097      1139      1138
         4      1097      1098      1140      1139
         4      1098      1099      1141      1140
         4      1099      1100      1142      1141
         4      1100      1101      1143      1142
         4      1101      1102      1144      1143
         4      1102      1103      1145      1144
         3      1976      1977      1104
         5      1103      1978      1979      1146      1145
         5      1104      1105      1147      1981      1980
         3      1982      1983      1146
         4      1105      1106      1148      1147
         4      1106      1107      1149      1148
         4      1107      1108      1150      1149
         4      1108      1109      1151      1150
         4      1109      1110      1152      1151
         4      1110      1111      1153      1152
         4      1111      1112      1154      1153
         4      1112      1113      1155      1154
         4      1113      1114      1156      1155
         4      1114      1115      1157      1156
         4      1115      1116      1158      1157
         4      1116      1117      1159      1158
         4      1117      1118      1160      1159
         4      1118      1119      1161      1160
         4      1119      1120      1162      1161
         5      1120      1121      1984      1985      1162
         3      1986      1987      1163
         3      1121      1988      1989
         5      1990      1122      1164      1163      1991
         4      1122      1123      1165      1164
         4      1123      1124      1166      1165
         4      1124      1125      1167      1166
         4      1125      1126      1168      1167
         4      1126      1127      1169      1168
         4      1127      1128      1170      1169
         4      1128      1129      1171      1170
         4      1129      1130      1172      1171
         4      1130      1131      1173      1172
         4      1131      1132      1174      1173
         4      1132      1133      1175      1174
         4      1134      1135      1177      1176
         4      1135      1136      1178      1177
         4      1136      1137      1179      1178
         4      1137      1138      1180      1179
         4      1138      1139      1181      1180
         4      1139      1140      1182      1181
         4      1140      1141      1183      1182
         4      1141      1142      1184      1183
         4      1142      1143      1185      1184
         4      1143      1144      1186      1185
         4      1144      1145      1187      1186
         4      1145      1146      1188      1187
         3      1992      1993      1147
         5      1146      1994      1995      1189      1188
         5      1147      1148      1190      1997      1996
         3      1998      1999      1189
         4      1148      1149      1191      1190
         4      1149      1150      1192      1191
         4      1150      1151      1193      1192
         4      1151      1152      1194      1193
         4      1152      1153      1195      1194
         4      1153      1154      1196      1195
         4      1154      1155      1197      1196
         4      1155      1156      1198      1197
         4      1156      1157      1199      1198
         4      1157      1158      1200      1199
         4      1158      1159      1201      1200
         4      1159      1160      1202      1201
         4      1160      1161      1203      1202
         5      1161      1162      2000      2001      1203
         3      2002      2003      1204
         3      1162      2004      2005
         5      2006      1163      1205      1204      2007
         4      1163      1164      1206      1205
         4      1164      1165      1207      1206
         4      1165      1166      1208      1207
         4      1166      1167      1209      1208
         4      1167      1168      1210      1209
         4      1168      1169      1211      1210
         4      1169      1170      1212      1211
         4      1170      1171      1213      1212
         4      1171      1172      1214      1213
         4      1172      1173      1215      1214
         4      1173      1174      1216      1215
         4      1174      1175      1217      1216
         4      1176      1177      1219      1218
         4      1177      1178      1220      1219
         4      1178      1179      1221      1220
         4      1179      1180      1222      1221
         4      1180      1181      1223      1222
         4      1181      1182      1224      1223
         4      1182      1183      1225      1224
         4      1183      1184      1226      1225
         4      1184      1185      1227      1226
         4      1185      1186      1228      1227
         4      1186      1187      1229      1228
         4      1187      1188      1230      1229
         4      1188      1189      1231      1230
         3      2008      2009      1190
         5      1189      2010      2011      1232      1231
         5      1190      1191      1233      2013      2012
         3      2014      2015      1232
         4      1191      1192      1234      1233
         4      1192      1193      1235      1234
         4      1193      1194      1236      1235
         4      1194      1195      1237      1236
         4      1195      1196      1238      1237
         4      1196      1197      1239      1238
         4      1197      1198      1240      1239
         4      1198      1199      1241      1240
         4      1199      1200      1242      1241
         4      1200      1201      1243      1242
         4      1201      1202      1244      1243
         5      1202      1203      2016      2017      1244
         3      2018      2019      1245
         3      1203      2020      2021
         5      2022      1204      1246      1245      2023
         4      1204      1205      1247      1246
         4      1205      1206      1248      1247
         4      1206      1207      1249      1248
         4      1207      1208      1250      1249
         4      1208      1209      1251      1250
         4      1209      1210      1252      1251
         4      1210      1211      1253      1252
         4      1211      1212      1254      1253
         4      1212      1213      1255      1254
         4      1213      1214      1256      1255
         4      1214      1215      1257      1256
         4      1215      1216      1258      1257
         4      1216      1217      1259      1258
         4      1218      1219      1261      1260
         4      1219      1220      1262      1261
         4      1220      1221      1263      1262
         4      1221      1222      1264      1263
         4      1222      1223      1265      1264
         4      1223      1224      1266      1265
         4      1224      1225      1267      1266
         4      1225      1226      1268      1267
         4      1226      1227      1269      1268
         4      1227      1228      1270      1269
         4      1228      1229      1271      1270
         4      1229      1230      1272      1271
         4      1230      1231      1273      1272
         4      1231      1232      1274      1273
         3      2024      2025      1233
         5      1232      2026      2027      1275      1274
         4      1233      1234      2029      2028
         4      2030      2031      1276      1275
         5      1234      1235      1277      2033      2032
         3      2034      2035      1276
         4      1235      1236      1278      1277
         4      1236      1237      1279      1278
         4      1237      1238      1280      1279
         4      1238      1239      1281      1280
         4      1239      1240      1282      1281
         4      1240      1241      1283      1282
         4      1241      1242      1284      1283
         5      1242      1243      2036      2037      1284
         3      2038      2039      1285
         4      1243      1244      2041      2040
         4      2042      2043      1286      1285
         3      1244      2044      2045
         5      2046      1245      1287      1286      2047
         4      1245      1246      1288      1287
         4      1246      1247      1289      1288
         4      1247      1248      1290      1289
         4      1248      1249      1291      1290
         4      1249      1250      1292      1291
         4      1250      1251      1293      1292
         4      1251      1252      1294      1293
         4      1252      1253      1295      1294
         4      1253      1254      1296      1295
         4      1254      1255      1297      1296
         4      1255      1256      1298      1297
         4      1256      1257      1299      1298
         4      1257      1258      1300      1299
         4      1258      1259      1301      1300
         4      1260      1261      1303      1302
         4      1261      1262      1304      1303
         4      1262      1263      1305      1304
         4      1263      1264      1306      1305
         4      1264      1265      1307      1306
         4      1265      1266      1308      1307
         4      1266      1267      1309      1308
         4      1267      1268      1310      1309
         4      1268      1269      1311      1310
         4      1269      1270      1312      1311
         4      1270      1271      1313      1312
         4      1271      1272      1314      1313
         4      1272      1273      1315      1314
         4      1273      1274      1316      1315
         4      1274      1275      1317      1316
         4      1275      1276      1318      1317
         3      2048      2049      1277
         5      1276      2050      2051      1319      1318
         4      1277      1278      2053      2052
         4      2054      2055      1320      1319
         4      1278      1279      2057      2056
         4      2058      2059      1321      1320
         4      1279      1280      2061      2060
         4      2062      2063      1322      1321
         4      1280      1281      2065      2064
         4      2066      2067      1323      1322
         4      1281      1282      2069      2068
         4      2070      2071      1324      1323
         4      1282      1283      2073      2072
         4      2074      2075      1325      1324
         4      1283      1284      2077      2076
         4      2078      2079      1326      1325
         3      1284      2080      2081
         5      2082      1285      1327      1326      2083
         4      1285      1286      1328      1327
         4      1286      1287      1329      1328
         4      1287      1288      1330      1329
         4      1288      1289      1331      1330
         4      1289      1290      1332      1331
         4      1290      1291      1333      1332
         4      1291      1292      1334      1333
         4      1292      1293      1335      1334
         4      1293      1294      1336      1335
         4      1294      1295      1337      1336
         4      1295      1296      1338      1337
         4      1296      1297      1339      1338
         4      1297      1298      1340      1339
         4      1298      1299      1341      1340
         4      1299      1300      1342      1341
         4      1300      1301      1343      1342
         4      1302      1303      1345      1344
         4      1303      1304      1346      1345
         4      1304      1305      1347      1346
         4      1305      1306      1348      1347
         4      1306      1307      1349      1348
         4      1307      1308      1350      1349
         4      1308      1309      1351      1350
         4      1309      1310      1352      1351
         4      1310      1311      1353      1352
         4      1311      1312      1354      1353
         4      1312      1313      1355      1354
         4      1313      1314      1356      1355
         4      1314      1315      1357      1356
         4      1315      1316      1358      1357
         4      1316      1317      1359      1358
         4      1317      1318      1360      1359
         4      1318      1319      1361      1360
         4      1319      1320      1362      1361
         4      1320      1321      1363      1362
         4      1321      1322      1364      1363
         4      1322      1323      1365      1364
         4      1323      1324      1366      1365
         4      1324      1325      1367      1366
         4      1325      1326      1368      1367
         4      1326      1327      1369      1368
         4      1327      1328      1370      1369
         4      1328      1329      1371      1370
         4      1329      1330      1372      1371
         4      1330      1331      1373      1372
         4      1331      1332      1374      1373
         4      1332      1333      1375      1374
         4      1333      1334      1376      1375
         4      1334      1335      1377      1376
         4      1335      1336      1378      1377
         4      1336      1337      1379      1378
         4      1337      1338      1380      1379
         4      1338      1339      1381      1380
         4      1339      1340      1382      1381
         4      1340      1341      1383      1382
         4      1341      1342      1384      1383
         4      1342      1343      1385      1384
         4      1344      1345      1387      1386
         4      1345      1346      1388      1387
         4      1346      1347      1389      1388
         4      1347      1348      1390      1389
         4      1348      1349      1391      1390
         4      1349      1350      1392      1391
         4      1350      1351      1393      1392
         4      1351      1352      1394      1393
         4      1352      1353      1395      1394
         4      1353      1354      1396      1395
         4      1354      1355      1397      1396
         4      1355      1356      1398      1397
         4      1356      1357      1399      1398
         4      1357      1358      1400      1399
         4      1358      1359      1401      1400
         4      1359      1360      1402      1401
         4      1360      1361      1403      1402
         4      1361      1362      1404      1403
         4      1362      1363      1405      1404
         4      1363      1364      1406      1405
         4      1364      1365      1407      1406
         4      1365      1366      1408      1407
         4      1366      1367      1409      1408
         4      1367      1368      1410      1409
         4      1368      1369      1411      1410
         4      1369      1370      1412      1411
         4      1370      1371      1413      1412
         4      1371      1372      1414      1413
         4      1372      1373      1415      1414
         4      1373      1374      1416      1415
         4      1374      1375      1417      1416
         4      1375      1376      1418      1417
         4      1376      1377      1419      1418
         4      1377      1378      1420      1419
         4      1378      1379      1421      1420
         4      1379      1380      1422      1421
         4      1380      1381      1423      1422
         4      1381      1382      1424      1423
         4      1382      1383      1425      1424
         4      1383      1384      1426      1425
         4      1384      1385      1427      1426
         4      1386      1387      1429      1428
         4      1387      1388      1430      1429
         4      1388      1389      1431      1430
         4      1389      1390      1432      1431
         4      1390      1391      1433      1432
         4      1391      1392      1434      1433
         4      1392      1393      1435      1434
         4      1393      1394      1436      1435
         4      1394      1395      1437      1436
         4      1395      1396      1438      1437
         4      1396      1397      1439      1438
         4      1397      1398      1440      1439
         4      1398      1399      1441      1440
         4      1399      1400      1442      1441
         4      1400      1401      1443      1442
         4      1401      1402      1444      1443
         4      1402      1403      1445      1444
         4      1403      1404      1446      1445
         4      1404      1405      1447      1446
         4      1405      1406      1448      1447
         4      1406      1407      1449      1448
         4      1407      1408      1450      1449
         4      1408      1409      1451      1450
         4      1409      1410      1452      1451
         4      1410      1411      1453      1452
         4      1411      1412      1454      1453
         4      1412      1413      1455      1454
         4      1413      1414      1456      1455
         4      1414      1415      1457      1456
         4      1415      1416      1458      1457
         4      1416      1417      1459      1458
         4      1417      1418      1460      1459
         4      1418      1419      1461      1460
         4      1419      1420      1462      1461
         4      1420      1421      1463      1462
         4      1421      1422      1464      1463
         4      1422      1423      1465      1464
         4      1423      1424      1466      1465
         4      1424      1425      1467      1466
         4      1425      1426      1468      1467
         4      1426      1427      1469      1468
         4      1428      1429      1471      1470
         4      1429      1430      1472      1471
         4      1430      1431      1473      1472
         4      1431      1432      1474      1473
         4      1432      1433      1475      1474
         4      1433      1434      1476      1475
         4      1434      1435      1477      1476
         4      1435      1436      1478      1477
         4      1436      1437      1479      1478
         4      1437      1438      1480      1479
         4      1438      1439      1481      1480
         4      1439      1440      1482      1481
         4      1440      1441      1483      1482
         4      1441      1442      1484      1483
         4      1442      1443      1485      1484
         4      1443      1444      1486      1485
         4      1444      1445      1487      1486
         4      1445      1446      1488      1487
         4      1446      1447      1489      1488
         4      1447      1448      1490      1489
         4      1448      1449      1491      1490
         4      1449      1450      1492      1491
         4      1450      1451      1493      1492
         4      1451      1452      1494      1493
         4      1452      1453      1495      1494
         4      1453      1454      1496      1495
         4      1454      1455      1497      1496
         4      1455      1456      1498      1497
         4      1456      1457      1499      1498
         4      1457      1458      1500      1499
         4      1458      1459      1501      1500
         4      1459      1460      1502      1501
         4      1460      1461      1503      1502
         4      1461      1462      1504      1503
         4      1462      1463      1505      1504
         4      1463      1464      1506      1505
         4      1464      1465      1507      1506
         4      1465      1466      1508      1507
         4      1466      1467      1509      1508
         4      1467      1468      1510      1509
         4      1468      1469      1511      1510
         4      1470      1471      1513      1512
         4      1471      1472      1514      1513
         4      1472      1473      1515      1514
         4      1473      1474      1516      1515
         4      1474      1475      1517      1516
         4      1475      1476      1518      1517
         4      1476      1477      1519      1518
         4      1477      1478      1520      1519
         4      1478      1479      1521      1520
         4      1479      1480      1522      1521
         4      1480      1481      1523      1522
         4      1481      1482      1524      1523
         4      1482      1483      1525      1524
         4      1483      1484      1526      1525
         4      1484      1485      1527      1526
         4      1485      1486      1528      1527
         4      1486      1487      1529      1528
         4      1487      1488      1530      1529
         4      1488      1489      1531      1530
         4      1489      1490      1532      1531
         4      1490      1491      1533      1532
         4      1491      1492      1534      1533
         4      1492      1493      1535      1534
         4      1493      1494      1536      1535
         4      1494      1495      1537      1536
         4      1495      1496      1538      1537
         4      1496      1497      1539      1538
         4      1497      1498      1540      1539
         4      1498      1499      1541      1540
         4      1499      1500      1542      1541
         4      1500      1501      1543      1542
         4      1501      1502      1544      1543
         4      1502      1503      1545      1544
         4      1503      1504      1546      1545
         4      1504      1505      1547      1546
         4      1505      1506      1548      1547
         4      1506      1507      1549      1548
         4      1507      1508      1550      1549
         4      1508      1509      1551      1550
         4      1509      1510      1552      1551
         4      1510      1511      1553      1552
         4      1512      1513      1555      1554
         4      1513      1514      1556      1555
         4      1514      1515      1557      1556
         4      1515      1516      1558      1557
         4      1516      1517      1559      1558
         4      1517      1518      1560      1559
         4      1518      1519      1561      1560
         4      1519      1520      1562      1561
         4      1520      1521      1563      1562
         4      1521      1522      1564      1563
         4      1522      1523      1565      1564
         4      1523      1524      1566      1565
         4      1524      1525      1567      1566
         4      1525      1526      1568      1567
         4      1526      1527      1569      1568
         4      1527      1528      1570      1569
         4      1528      1529      1571      1570
         4      1529      1530      1572      1571
         4      1530      1531      1573      1572
         4      1531      1532      1574      1573
         4      1532      1533      1575      1574
         4      1533      1534      1576      1575
         4      1534      1535      1577      1576
         4      1535      1536      1578      1577
         4      1536      1537      1579      1578
         4      1537      1538      1580      1579
         4      1538      1539      1581      1580
         4      1539      1540      1582      1581
         4      1540      1541      1583      1582
         4      1541      1542      1584      1583
         4      1542      1543      1585      1584
         4      1543      1544      1586      1585
         4      1544      1545      1587      1586
         4      1545      1546      1588      1587
         4      1546      1547      1589      1588
         4      1547      1548      1590      1589
         4      1548      1549      1591      1590
         4      1549      1550      1592      1591
         4      1550      1551      1593      1592
         4      1551      1552      1594      1593
         4      1552      1553      1595      1594
         4      1554      1555      1597      1596
         4      1555      1556      1598      1597
         4      1556      1557      1599      1598
         4      1557      1558      1600      1599
         4      1558      1559      1601      1600
         4      1559      1560      1602      1601
         4      1560      1561      1603      1602
         4      1561      1562      1604      1603
         4      1562      1563      1605      1604
         4      1563      1564      1606      1605
         4      1564      1565      1607      1606
         4      1565      1566      1608      1607
         4      1566      1567      1609      1608
         4      1567      1568      1610      1609
         4      1568      1569      1611      1610
         4      1569      1570      1612      1611
         4      1570      1571      1613      1612
         4      1571      1572      1614      1613
         4      1572      1573      1615      1614
         4      1573      1574      1616      1615
         4      1574      1575      1617      1616
         4      1575      1576      1618      1617
         4      1576      1577      1619      1618
         4      1577      1578      1620      1619
         4      1578      1579      1621      1620
         4      1579      1580      1622      1621
         4      1580      1581      1623      1622
         4      1581      1582      1624      1623
         4      1582      1583      1625      1624
         4      1583      1584      1626      1625
         4      1584      1585      1627      1626
         4      1585      1586      1628      1627
         4      1586      1587      1629      1628
         4      1587      1588      1630      1629
         4      1588      1589      1631      1630
         4      1589      1590      1632      1631
         4      1590      1591      1633      1632
         4      1591      1592      1634      1633
         4      1592      1593      1635      1634
         4      1593      1594      1636      1635
         4      1594      1595      1637      1636
         4      1596      1597      1639      1638
         4      1597      1598      1640      1639
         4      1598      1599      1641      1640
         4      1599      1600      1642      1641
         4      1600      1601      1643      1642
         4      1601      1602      1644      1643
         4      1602      1603      1645      1644
         4      1603      1604      1646      1645
         4      1604      1605      1647      1646
         4      1605      1606      1648      1647
         4      1606      1607      1649      1648
         4      1607      1608      1650      1649
         4      1608      1609      1651      1650
         4      1609      1610      1652      1651
         4      1610      1611      1653      1652
         4      1611      1612      1654      1653
         4      1612      1613      1655      1654
         4      1613      1614      1656      1655
         4      1614      1615      1657      1656
         4      1615      1616      1658      1657
         4      1616      1617      1659      1658
         4      1617      1618      1660      1659
         4      1618      1619      1661      1660
         4      1619      1620      1662      1661
         4      1620      1621      1663      1662
         4      1621      1622      1664      1663
         4      1622      1623      1665      1664
         4      1623      1624      1666      1665
         4      1624      1625      1667      1666
         4      1625      1626      1668      1667
         4      1626      1627      1669      1668
         4      1627      1628      1670      1669
         4      1628      1629      1671      1670
         4      1629      1630      1672      1671
         4      1630      1631      1673      1672
         4      1631      1632      1674      1673
         4      1632      1633      1675      1674
         4      1633      1634      1676      1675
         4      1634      1635      1677      1676
         4      1635      1636      1678      1677
         4      1636      1637      1679      1678
         4      1638      1639      1681      1680
         4      1639      1640      1682      1681
         4      1640      1641      1683      1682
         4      1641      1642      1684      1683
         4      1642      1643      1685      1684
         4      1643      1644      1686      1685
         4      1644      1645      1687      1686
         4      1645      1646      1688      1687
         4      1646      1647      1689      1688
         4      1647      1648      1690      1689
         4      1648      1649      1691      1690
         4      1649      1650      1692      1691
         4      1650      1651      1693      1692
         4      1651      1652      1694      1693
         4      1652      1653      1695      1694
         4      1653      1654      1696      1695
         4      1654      1655      1697      1696
         4      1655      1656      1698      1697
         4      1656      1657      1699      1698
         4      1657      1658      1700      1699
         4      1658      1659      1701      1700
         4      1659      1660      1702      1701
         4      1660      1661      1703      1702
         4      1661      1662      1704      1703
         4      1662      1663      1705      1704
         4      1663      1664      1706      1705
         4      1664      1665      1707      1706
         4      1665      1666      1708      1707
         4      1666      1667      1709      1708
         4      1667      1668      1710      1709
         4      1668      1669      1711      1710
         4      1669      1670      1712      1711
         4      1670      1671      1713      1712
         4      1671      1672      1714      1713
         4      1672      1673      1715      1714
         4      1673      1674      1716      1715
         4      1674      1675      1717      1716
         4      1675      1676      1718      1717
         4      1676      1677      1719      1718
         4      1677      1678      1720      1719
         4      1678      1679      1721      1720
         4      1680      1681      1723      1722
         4      1681      1682      1724      1723
         4      1682      1683      1725      1724
         4      1683      1684      1726      1725
         4      1684      1685      1727      1726
         4      1685      1686      1728      1727
         4      1686      1687      1729      1728
         4      1687      1688      1730      1729
         4      1688      1689      1731      1730
         4      1689      1690      1732      1731
         4      1690      1691      1733      1732
         4      1691      1692      1734      1733
         4      1692      1693      1735      1734
         4      1693      1694      1736      1735
         4      1694      1695      1737      1736
         4      1695      1696      1738      1737
         4      1696      1697      1739      1738
         4      1697      1698      1740      1739
         4      1698      1699      1741      1740
         4      1699      1700      1742      1741
         4      1700      1701      1743      1742
         4      1701      1702      1744      1743
         4      1702      1703      1745      1744
         4      1703      1704      1746      1745
         4      1704      1705      1747      1746
         4      1705      1706      1748      1747
         4      1706      1707      1749      1748
         4      1707      1708      1750      1749
         4      1708      1709      1751      1750
         4      1709      1710      1752      1751
         4      1710      1711      1753      1752
         4      1711      1712      1754      1753
         4      1712      1713      1755      1754
         4      1713      1714      1756      1755
         4      1714      1715      1757      1756
         4      1715      1716      1758      1757
         4      1716      1717      1759      1758
         4      1717      1718      1760      1759
         4      1718      1719      1761      1760
         4      1719      1720      1762      1761
         4      1720      1721      1763      1762

CELL_TYPES 1761
   9
   9
   9
   9
   9
   9
   9
   9
   9
   9
   9
   9
   9
   9
   9
   9
   9
   9
   9
   9
   9
   9
   9
   9
   9
   9
   9
   9
   9
   9
   9
   9
   9
   9
   9
   9
   9
   9
   9
   9
   9
   9
   9
   9
   9
   9
   9
   9
   9
   9
   9
   9
   9
   9
   9
   9
   9
   9
   9
   9
   9
   9
   9
   9
   9
   9
   9
   9
   9
   9
   9
   9
   9
   9
   9
   9
   9
   9
   9
   9
   9
   9
   9
   9
   9
   9
   9
   9
   9
   9
   9
   9
   9
   9
   9
   9
   9
   9
   9
   9
   9
   9
   9
   9
   9
   9
   9
   9
   9
   9
   9
   9
   9
   9
   9
   9
   9
   9
   9
   9
   9
   9
   9
   9
   9
   9
   9
   9
   9
   9
   9
   9
   9
   9
   9
   9
   9
   9
   9
   9
   9
   9
   9
   9
   9
   9
   9
   9
   9
   9
   9
   9
   9
   9
   9
   9
   9
   9
   9
   9
   9
   9
   9
   9
   9
   9
   9
   9
   9
   9
   9
   9
   9
   9
   9
   9
   9
   9
   9
   9
   9
   9
   9
   9
   9
   9
   9
   9
   9
   9
   9
   9
   9
   9
   9
   9
   9
   9
   9
   9
   9
   9
   9
   9
   9
   9
   9
   9
   9
   9
   9
   9
   9
   9
   9
   9
   9
   9
   9
   9
   9
   9
   9
   9
   9
   9
   9
   9
   9
   9
   9
   9
   9
   9
   9
   9
   9
   9
   9
   9
   9
   9
   9
   9
   9
   9
   9
   9
   9
   9
   9
   9
   9
   9
   9
   9
   9
   9
   9
   9
   9
   9
   9
   9
   9
   9
   9
   9
   9
   9
   9
   9
   9
   9
   9
   9
   9
   9
   9
   9
   9
   9
   9
   9
   9
   9
   9
   9
   9
   9
   9
   9
   9
   9
   9
   9
   9
   9
   9
   9
   9
   9
   9
   9
   9
   9
   9
   9
   9
   9
   9
   9
   9
   9
   9
   9
   9
   9
   9
   9
   9
   9
   9
   9
   9
   9
   9
   9
   9
   9
   9
   9
   9
   9
   9
   9
   9
   9
   9
   9
   9
   9
   9
   9
   9
   9
   9
   9
   9
   9
   9
   9
   9
   9
   9
   9
   9
   9
   9
   9
   9
   9
   9
   9
   9
   9
   9
   9
   9
   9
   9
   9
   9
   9
   9
   9
   9
   9
   9
   9
   9
   9
   9
   9
   9
   9
   9
   9
   9
   9
   9
   9
   9
   9
   9
   9
   9
   9
   9
   9
   9
   9
   9
   9
   9
   9
   9
   9
   9
   9
   9
   9
   9
   9
   9
   9
   9
   9
   9
   9
   9
   9
   9
   9
   9
   9
   5
   7
   9
   9
   9
   9
   9
   9
   9
   9
   9
   9
   9
   9
   9
   9
   5
   7
   9
   9
   9
   9
   9
   9
   9
   9
   9
   9
   9
   9
   9
   9
   9
   9
   9
   9
   9
   9
   9
   9
   9
   9
   9
   9
   9
   9
   9
   9
   5
   7
   9
   9
   7
   5
   9
   9
   9
   9
   9
   9
   9
   7
   5
   9
   9
   5
   7
   9
   9
   9
   9
   9
   9
   9
   9
   9
   9
   9
   9
   9
   9
   9
   9
   9
   9
   9
   9
   9
   9
   9
   9
   9
   9
   9
   5
   7
   7
   5
   9
   9
   9
   9
   9
   9
   9
   9
   9
   9
   9
   7
   5
   5
   7
   9
   9
   9
   9
   9
   9
   9
   9
   9
   9
   9
   9
   9
   9
   9
   9
   9
   9
   9
   9
   9
   9
   9
   9
   9
   5
   7
   7
   5
   9
   9
   9
   9
   9
   9
   9
   9
   9
   9
   9
   9
   9
   7
   5
   5
   7
   9
   9
   9
   9
   9
   9
   9
   9
   9
   9
   9
   9
   9
   9
   9
   9
   9
   9
   9
   9
   9
   9
   9
   5
   7
   7
   5
   9
   9
   9
   9
   9
   9
   9
   9
   9
   9
   9
   9
   9
   9
   9
   7
   5
   5
   7
   9
   9
   9
   9
   9
   9
   9
   9
   9
   9
   9
   9
   9
   9
   9
   9
   9
   9
   9
   9
   9
   9
   9
   9
   9
   9
   9
   9
   9
   9
   9
   9
   9
   9
   9
   9
   9
   9
   9
   9
   9
   9
   9
   9
   9
   9
   9
   9
   9
   9
   9
   9
   9
   9
   9
   9
   9
   9
   9
   9
   9
   9
   9
   9
   5
   7
   7
   5
   9
   9
   9
   9
   9
   9
   9
   9
   9
   9
   9
   9
   9
   9
   9
   9
   9
   7
   5
   5
   7
   9
   9
   9
   9
   9
   9
   9
   9
   9
   9
   9
   9
   9
   9
   9
   9
   9
   9
   9
   9
   9
   9
   9
   9
   9
   9
   9
   9
   9
   9
   9
   9
   9
   9
   9
   9
   9
   9
   9
   9
   9
   9
   9
   9
   9
   9
   9
   9
   9
   9
   9
   9
   9
   9
   9
   9
   9
   9
   9
   9
   9
   9
   9
   9
   9
   9
   9
   9
   9
   9
   9
   9
   9
   9
   9
   9
   9
   9
   9
   9
   9
   9
   9
   9
   9
   9
   9
   9
   9
   9
   9
   9
   9
   9
   9
   9
   9
   9
   9
   9
   9
   9
   9
   9
   9
   9
   9
   9
   9
   9
   9
   9
   9
   9
   9
   9
   9
   9
   9
   9
   9
   9
   9
   9
   9
   9
   9
   9
   9
   9
   9
   9
   9
   9
   9
   9
   9
   9
   9
   9
   9
   9
   9
   9
   9
   9
   9
   9
   9
   9
   9
   9
   9
   9
   9
   9
   9
   9
   9
   9
   9
   9
   9
   9
   9
   9
   9
   9
   9
   9
   9
   9
   9
   9
   9
   9
   9
   9
   9
   9
   9
   9
   9
   9
   9
   9
   9
   9
   9
   9
   9
   9
   9
   9
   9
   9
   9
   9
   9
   9
   9
   9
   9
   9
   9
   9
   9
   9
   9
   9
   9
   9
   9
   9
   9
   9
   9
   9
   9
   9
   9
   9
   9
   9
   9
   9
   9
   9
   9
   9
   9
   9
   9
   9
   9
   9
   9
   9
   9
   9
   9
   9
   9
   9
   9
   9
   9
   9
   9
   9
   9
   9
   9
   9
   9
   9
   9
   9
   9
   9
   9
   9
   9
   9
   9
   9
   9
   9
   9
   9
   9
   9
   9
   9
   9
   9
   9
   9
   9
   9
   9
   9
   9
   9
   9
   9
   9
   9
   9
   9
   9
   9
   9
   9
   9
   9
   9
   9
   9
   9
   9
   9
   9
   9
   9
   9
   9
   9
   9
   9
   9
   9
   9
   9
   9
   9
   9
   9
   9
   9
   9
   5
   7
   7
   5
   9
   9
   9
   9
   9
   9
   9
   9
   9
   9
   9
   9
   9
   9
   9
   9
   9
   7
   5
   5
   7
   9
   9
   9
   9
   9
   9
   9
   9
   9
   9
   9
   9
   9
   9
   9
   9
   9
   9
   9
   9
   9
   9
   9
   9
   9
   9
   9
   9
   9
   9
   9
   9
   9
   9
   9
   9
   9
   9
   9
   9
   9
   9
   9
   9
   9
   9
   9
   9
   9
   9
   9
   9
   9
   9
   9
   9
   9
   9
   9
   9
   9
   9
   9
   9
   5
   7
   7
   5
   9
   9
   9
   9
   9
   9
   9
   9
   9
   9
   9
   9
   9
   9
   9
   7
   5
   5
   7
   9
   9
   9
   9
   9
   9
   9
   9
   9
   9
   9
   9
   9
   9
   9
   9
   9
   9
   9
   9
   9
   9
   9
   5
   7
   7
   5
   9
   9
   9
   9
   9
   9
   9
   9
   9
   9
   9
   9
   9
   7
   5
   5
   7
   9
   9
   9
   9
   9
   9
   9
   9
   9
   9
   9
   9
   9
   9
   9
   9
   9
   9
   9
   9
   9
   9
   9
   9
   9
   5
   7
   7
   5
   9
   9
   9
   9
   9
   9
   9
   9
   9
   9
   9
   7
   5
   5
   7
   9
   9
   9
   9
   9
   9
   9
   9
   9
   9
   9
   9
   9
   9
   9
   9
   9
   9
   9
   9
   9
   9
   9
   9
   9
   9
   9
   5
   7
   9
   9
   7
   5
   9
   9
   9
   9
   9
   9
   9
   7
   5
   9
   9
   5
   7
   9
   9
   9
   9
   9
   9
   9
   9
   9
   9
   9
   9
   9
   9
   9
   9
   9
   9
   9
   9
   9
   9
   9
   9
   9
   9
   9
   9
   9
   9
   5
   7
   9
   9
   9
   9
   9
   9
   9
   9
   9
   9
   9
   9
   9
   9
   5
   7
   9
   9
   9
   9
   9
   9
   9
   9
   9
   9
   9
   9
   9
   9
   9
   9
   9
   9
   9
   9
   9
   9
   9
   9
   9
   9
   9
   9
   9
   9
   9
   9
   9
   9
   9
   9
   9
   9
   9
   9
   9
   9
   9
   9
   9
   9
   9
   9
   9
   9
   9
   9
   9
   9
   9
   9
   9
   9
   9
   9
   9
   9
   9
   9
   9
   9
   9
   9
   9
   9
   9
   9
   9
   9
   9
   9
   9
   9
   9
   9
   9
   9
   9
   9
   9
   9
   9
   9
   9
   9
   9
   9
   9
   9
   9
   9
   9
   9
   9
   9
   9
   9
   9
   9
   9
   9
   9
   9
   9
   9
   9
   9
   9
   9
   9
   9
   9
   9
   9
   9
   9
   9
   9
   9
   9
   9
   9
   9
   9
   9
   9
   9
   9
   9
   9
   9
   9
   9
   9
   9
   9
   9
   9
   9
   9
   9
   9
   9
   9
   9
   9
   9
   9
   9
   9
   9
   9
   9
   9
   9
   9
   9
   9
   9
   9
   9
   9
   9
   9
   9
   9
   9
   9
   9
   9
   9
   9
   9
   9
   9
   9
   9
   9
   9
   9
   9
   9
   9
   9
   9
   9
   9
   9
   9
   9
   9
   9
   9
   9
   9
   9
   9
   9
   9
   9
   9
   9
   9
   9
   9
   9
   9
   9
   9
   9
   9
   9
   9
   9
   9
   9
   9
   9
   9
   9
   9
   9
   9
   9
   9
   9
   9
   9
   9
   9
   9
   9
   9
   9
   9
   9
   9
   9
   9
   9
   9
   9
   9
   9
   9
   9
   9
   9
   9
   9
   9
   9
   9
   9
   9
   9
   9
   9
   9
   9
   9
   9
   9
   9
   9
   9
   9
   9
   9
   9
   9
   9
   9
   9
   9
   9
   9
   9
   9
   9
   9
   9
   9
   9
   9
   9
   9
   9
   9
   9
   9
   9
   9
   9
   9
   9
   9
   9
   9
   9
   9
   9
   9
   9
   9
   9
   9
   9
   9
   9
   9
   9
   9
   9
   9
   9
   9
   9
   9
   9
   9
   9
   9
   9
   9
   9
   9
   9
   9
   9
   9
   9
   9
   9
   9
   9
   9
   9
   9
   9
   9
   9
   9
   9
   9
   9
   9
   9
   9
   9
   9
   9
   9
   9
   9
   9
   9
   9
   9
   9
   9
   9
   9
   9
   9
   9
   9
   9
   9
   9
   9
   9
   9
   9
   9
   9
   9
   9
   9
   9
   9
   9
   9
   9
   9
   9
   9
   9
   9
   9
   9
   9
   9
   9
   9
   9
   9
   9
   9
   9
   9
   9
   9
   9
   9
   9
   9
   9
   9
   9
   9
   9
   9
   9
   9
   9
   9
   9
   9
   9
   9

CELL_DATA 1761
SCALARS domain int
LOOKUP_TABLE default
   2
   2
   2
   2
   2
   2
   2
   2
   2
   2
   2
   2
   2
   2
   2
   2
   2
   2
   2
   2
   2
   2
   2
   2
   2
   2
   2
   2
   2
   2
   2
   2
   2
   2
   2
   2
   2
   2
   2
   2
   2
   2
   2
   2
   2
   2
   2
   2
   2
   2
   2
   2
   2
   2
   2
   2
   2
   2
   2
   2
   2
   2
   2
   2
   2
   2
   2
   2
   2
   2
   2
   2
   2
   2
   2
   2
   2
   2
   2
   2
   2
   2
   2
   2
   2
   2
   2
   2
   2
   2
   2
   2
   2
   2
   2
   2
   2
   2
   2
   2
   2
   2
   2
   2
   2
   2
   2
   2
   2
   2
   2
   2
   2
   2
   2
   2
   2
   2
   2
   2
   2
   2
   2
   2
   2
   2
   2
   2
   2
   2
   2
   2
   2
   2
   2
   2
   2
   2
   2
   2
   2
   2
   2
   2
   2
   2
   2
   2
   2
   2
   2
   2
   2
   2
   2
   2
   2
   2
   2
   2
   2
   2
   2
   2
   2
   2
   2
   2
   2
   2
   2
   2
   2
   2
   2
   2
   2
   2
   2
   2
   2
   2
   2
   2
   2
   2
   2
   2
   2
   2
   2
   2
   2
   2
   2
   2
   2
   2
   2
   2
   2
   2
   2
   2
   2
   2
   2
   2
   2
   2
   2
   2
   2
   2
   2
   2
   2
   2
   2
   2
   2
   2
   2
   2
   2
   2
   2
   2
   2
   2
   2
   2
   2
   2
   2
   2
   2
   2
   2
   2
   2
   2
   2
   2
   2
   2
   2
   2
   2
   2
   2
   2
   2
   2
   2
   2
   2
   2
   2
   2
   2
   2
   2
   2
   2
   2
   2
   2
   2
   2
   2
   2
   2
   2
   2
   2
   2
   2
   2
   2
   2
   2
   2
   2
   2
   2
   2
   2
   2
   2
   2
   2
   2
   2
   2
   2
   2
   2
   2
   2
   2
   2
   2
   2
   2
   2
   2
   2
   2
   2
   2
   2
   2
   2
   2
   2
   2
   2
   2
   2
   2
   2
   2
   2
   2
   2
   2
   2
   2
   2
   2
   2
   2
   2
   2
   2
   2
   2
   2
   2
   2
   2
   2
   2
   2
   2
   2
   2
   2
   2
   2
   2
   2
   2
   2
   2
   2
   2
   2
   2
   2
   2
   2
   2
   2
   2
   2
   2
   2
   2
   2
   2
   2
   2
   2
   2
   2
   2
   2
   2
   2
   2
   2
   2
   2
   2
   2
   2
   2
   2
   2
   2
   2
   2
   2
   2
   2
   2
   2
   2
   2
   2
   2
   2
   2
   2
   2
   2
   2
   2
   2
   2
   2
   2
   2
   2
   2
   2
   2
   2
   2
   2
   2
   2
   2
   2
   1
   2
   1
   2
   1
   2
   1
   2
   1
   2
   1
   2
   1
   2
   1
   2
   1
   2
   2
   2
   2
   2
   2
   2
   2
   2
   2
   2
   2
   2
   2
   2
   2
   2
   2
   2
   2
   2
   2
   2
   2
   2
   2
   2
   2
   2
   2
   2
   1
   2
   1
   2
   1
   2
   1
   1
   1
   1
   1
   1
   1
   1
   2
   1
   2
   1
   2
   2
   2
   2
   2
   2
   2
   2
   2
   2
   2
   2
   2
   2
   2
   2
   2
   2
   2
   2
   2
   2
   2
   2
   2
   2
   2
   2
   1
   2
   1
   2
   1
   1
   1
   1
   1
   1
   1
   1
   1
   1
   1
   1
   2
   1
   2
   2
   2
   2
   2
   2
   2
   2
   2
   2
   2
   2
   2
   2
   2
   2
   2
   2
   2
   2
   2
   2
   2
   2
   2
   2
   1
   2
   1
   2
   1
   1
   1
   1
   1
   1
   1
   1
   1
   1
   1
   1
   1
   1
   2
   1
   2
   2
   2
   2
   2
   2
   2
   2
   2
   2
   2
   2
   2
   2
   2
   2
   2
   2
   2
   2
   2
   2
   2
   2
   1
   2
   1
   2
   1
   1
   1
   1
   1
   1
   1
   1
   1
   1
   1
   1
   1
   1
   1
   1
   2
   1
   2
   2
   2
   2
   2
   2
   2
   2
   2
   2
   2
   2
   2
   2
   2
   2
   2
   2
   2
   2
   2
   2
   2
   1
   2
   1
   1
   1
   1
   1
   1
   1
   1
   1
   1
   1
   1
   1
   1
   1
   1
   1
   1
   2
   2
   2
   2
   2
   2
   2
   2
   2
   2
   2
   2
   2
   2
   2
   2
   2
   2
   2
   2
   2
   2
   1
   2
   1
   2
   1
   1
   1
   1
   1
   1
   1
   1
   1
   1
   1
   1
   1
   1
   1
   1
   1
   1
   2
   1
   2
   2
   2
   2
   2
   2
   2
   2
   2
   2
   2
   2
   2
   2
   2
   2
   2
   2
   2
   2
   2
   1
   2
   1
   1
   1
   1
   1
   1
   1
   1
   1
   1
   1
   1
   1
   1
   1
   1
   1
   1
   1
   1
   2
   2
   2
   2
   2
   2
   2
   2
   2
   2
   2
   2
   2
   2
   2
   2
   2
   2
   2
   2
   2
   1
   2
   1
   1
   1
   1
   1
   1
   1
   1
   1
   1
   1
   1
   1
   1
   1
   1
   1
   1
   1
   1
   2
   2
   2
   2
   2
   2
   2
   2
   2
   2
   2
   2
   2
   2
   2
   2
   2
   2
   2
   2
   2
   1
   2
   1
   1
   1
   1
   1
   1
   1
   1
   1
   1
   1
   1
   1
   1
   1
   1
   1
   1
   1
   1
   2
   2
   2
   2
   2
   2
   2
   2
   2
   2
   2
   2
   2
   2
   2
   2
   2
   2
   2
   2
   2
   1
   2
   1
   1
   1
   1
   1
   1
   1
   1
   1
   1
   1
   1
   1
   1
   1
   1
   1
   1
   1
   1
   2
   2
   2
   2
   2
   2
   2
   2
   2
   2
   2
   2
   2
   2
   2
   2
   2
   2
   2
   2
   2
   1
   2
   1
   1
   1
   1
   1
   1
   1
   1
   1
   1
   1
   1
   1
   1
   1
   1
   1
   1
   1
   1
   2
   2
   2
   2
   2
   2
   2
   2
   2
   2
   2
   2
   2
   2
   2
   2
   2
   2
   2
   2
   2
   1
   2
   1
   1
   1
   1
   1
   1
   1
   1
   1
   1
   1
   1
   1
   1
   1
   1
   1
   1
   1
   1
   2
   2
   2
   2
   2
   2
   2
   2
   2
   2
   2
   2
   2
   2
   2
   2
   2
   2
   2
   2
   2
   1
   2
   1
   1
   1
   1
   1
   1
   1
   1
   1
   1
   1
   1
   1
   1
   1
   1
   1
   1
   1
   1
   2
   2
   2
   2
   2
   2
   2
   2
   2
   2
   2
   2
   2
   2
   2
   2
   2
   2
   2
   2
   2
   1
   2
   1
   2
   1
   1
   1
   1
   1
   1
   1
   1
   1
   1
   1
   1
   1
   1
   1
   1
   1
   1
   2
   1
   2
   2
   2
   2
   2
   2
   2
   2
   2
   2
   2
   2
   2
   2
   2
   2
   2
   2
   2
   2
   2
   2
   1
   2
   1
   1
   1
   1
   1
   1
   1
   1
   1
   1
   1
   1
   1
   1
   1
   1
   1
   1
   2
   2
   2
   2
   2
   2
   2
   2
   2
   2
   2
   2
   2
   2
   2
   2
   2
   2
   2
   2
   2
   2
   2
   1
   2
   1
   2
   1
   1
   1
   1
   1
   1
   1
   1
   1
   1
   1
   1
   1
   1
   1
   1
   2
   1
   2
   2
   2
   2
   2
   2
   2
   2
   2
   2
   2
   2
   2
   2
   2
   2
   2
   2
   2
   2
   2
   2
   2
   2
   1
   2
   1
   2
   1
   1
   1
   1
   1
   1
   1
   1
   1
   1
   1
   1
   1
   1
   2
   1
   2
   2
   2
   2
   2
   2
   2
   2
   2
   2
   2
   2
   2
   2
   2
   2
   2
   2
   2
   2
   2
   2
   2
   2
   2
   2
   1
   2
   1
   2
   1
   1
   1
   1
   1
   1
   1
   1
   1
   1
   1
   1
   2
   1
   2
   2
   2
   2
   2
   2
   2
   2
   2
   2
   2
   2
   2
   2
   2
   2
   2
   2
   2
   2
   2
   2
   2
   2
   2
   2
   2
   2
   1
   2
   1
   2
   1
   2
   1
   1
   1
   1
   1
   1
   1
   1
   2
   1
   2
   1
   2
   2
   2
   2
   2
   2
   2
   2
   2
   2
   2
   2
   2
   2
   2
   2
   2
   2
   2
   2
   2
   2
   2
   2
   2
   2
   2
   2
   2
   2
   2
   1
   2
   1
   2
   1
   2
   1
   2
   1
   2
   1
   2
   1
   2
   1
   2
   1
   2
   2
   2
   2
   2
   2
   2
   2
   2
   2
   2
   2
   2
   2
   2
   2
   2
   2
   2
   2
   2
   2
   2
   2
   2
   2
   2
   2
   2
   2
   2
   2
   2
   2
   2
   2
   2
   2
   2
   2
   2
   2
   2
   2
   2
   2
   2
   2
   2
   2
   2
   2
   2
   2
   2
   2
   2
   2
   2
   2
   2
   2
   2
   2
   2
   2
   2
   2
   2
   2
   2
   2
   2
   2
   2
   2
   2
   2
   2
   2
   2
   2
   2
   2
   2
   2
   2
   2
   2
   2
   2
   2
   2
   2
   2
   2
   2
   2
   2
   2
   2
   2
   2
   2
   2
   2
   2
   2
   2
   2
   2
   2
   2
   2
   2
   2
   2
   2
   2
   2
   2
   2
   2
   2
   2
   2
   2
   2
   2
   2
   2
   2
   2
   2
   2
   2
   2
   2
   2
   2
   2
   2
   2
   2
   2
   2
   2
   2
   2
   2
   2
   2
   2
   2
   2
   2
   2
   2
   2
   2
   2
   2
   2
   2
   2
   2
   2
   2
   2
   2
   2
   2
   2
   2
   2
   2
   2
   2
   2
   2
   2
   2
   2
   2
   2
   2
   2
   2
   2
   2
   2
   2
   2
   2
   2
   2
   2
   2
   2
   2
   2
   2
   2
   2
   2
   2
   2
   2
   2
   2
   2
   2
   2
   2
   2
   2
   2
   2
   2
   2
   2
   2
   2
   2
   2
   2
   2
   2
   2
   2
   2
   2
   2
   2
   2
   2
   2
   2
   2
   2
   2
   2
   2
   2
   2
   2
   2
   2
   2
   2
   2
   2
   2
   2
   2
   2
   2
   2
   2
   2
   2
   2
   2
   2
   2
   2
   2
   2
   2
   2
   2
   2
   2
   2
   2
   2
   2
   2
   2
   2
   2
   2
   2
   2
   2
   2
   2
   2
   2
   2
   2
   2
   2
   2
   2
   2
   2
   2
   2
   2
   2
   2
   2
   2
   2
   2
   2
   2
   2
   2
   2
   2
   2
   2
   2
   2
   2
   2
   2
   2
   2
   2
   2
   2
   2
   2
   2
   2
   2
   2
   2
   2
   2
   2
   2
   2
   2
   2
   2
   2
   2
   2
   2
   2
   2
   2
   2
   2
   2
   2
   2
   2
   2
   2
   2
   2
   2
   2
   2
   2
   2
   2
   2
   2
   2
   2
   2
   2
   2
   2
   2
   2
   2
   2
   2
   2
   2
   2
   2
   2
   2
   2
   2
   2
   2
   2
   2
   2
   2
   2
   2
   2
   2
   2
   2
   2
   2
   2
   2
   2
   2
   2
   2
   2
   2
   2
   2
   2
   2
   2
   2
   2
   2
   2
   2
   2
   2
   2
   2
   2
   2
   2
   2
   2
   2
   2
   2

SCALARS E float
LOOKUP_TABLE default
   1.000e+00
   1.000e+00
   1.000e+00
   1.000e+00
   1.000e+00
   1.000e+00
   1.000e+00
   1.000e+00
   1.000e+00
   1.000e+00
   1.000e+00
   1.000e+00
   1.000e+00
   1.000e+00
   1.000e+00
   1.000e+00
   1.000e+00
   1.000e+00
   1.000e+00
   1.000e+00
   1.000e+00
   1.000e+00
   1.000e+00
   1.000e+00
   1.000e+00
   1.000e+00
   1.000e+00
   1.000e+00
   1.000e+00
   1.000e+00
   1.000e+00
   1.000e+00
   1.000e+00
   1.000e+00
   1.000e+00
   1.000e+00
   1.000e+00
   1.000e+00
   1.000e+00
   1.000e+00
   1.000e+00
   1.000e+00
   1.000e+00
   1.000e+00
   1.000e+00
   1.000e+00
   1.000e+00
   1.000e+00
   1.000e+00
   1.000e+00
   1.000e+00
   1.000e+00
   1.000e+00
   1.000e+00
   1.000e+00
   1.000e+00
   1.000e+00
   1.000e+00
   1.000e+00
   1.000e+00
   1.000e+00
   1.000e+00
   1.000e+00
   1.000e+00
   1.000e+00
   1.000e+00
   1.000e+00
   1.000e+00
   1.000e+00
   1.000e+00
   1.000e+00
   1.000e+00
   1.000e+00
   1.000e+00
   1.000e+00
   1.000e+00
   1.000e+00
   1.000e+00
   1.000e+00
   1.000e+00
   1.000e+00
   1.000e+00
   1.000e+00
   1.000e+00
   1.000e+00
   1.000e+00
   1.000e+00
   1.000e+00
   1.000e+00
   1.000e+00
   1.000e+00
   1.000e+00
   1.000e+00
   1.000e+00
   1.000e+00
   1.000e+00
   1.000e+00
   1.000e+00
   1.000e+00
   1.000e+00
   1.000e+00
   1.000e+00
   1.000e+00
   1.000e+00
   1.000e+00
   1.000e+00
   1.000e+00
   1.000e+00
   1.000e+00
   1.000e+00
   1.000e+00
   1.000e+00
   1.000e+00
   1.000e+00
   1.000e+00
   1.000e+00
   1.000e+00
   1.000e+00
   1.000e+00
   1.000e+00
   1.000e+00
   1.000e+00
   1.000e+00
   1.000e+00
   1.000e+00
   1.000e+00
   1.000e+00
   1.000e+00
   1.000e+00
   1.000e+00
   1.000e+00
   1.000e+00
   1.000e+00
   1.000e+00
   1.000e+00
   1.000e+00
   1.000e+00
   1.000e+00
   1.000e+00
   1.000e+00
   1.000e+00
   1.000e+00
   1.000e+00
   1.000e+00
   1.000e+00
   1.000e+00
   1.000e+00
   1.000e+00
   1.000e+00
   1.000e+00
   1.000e+00
   1.000e+00
   1.000e+00
   1.000e+00
   1.000e+00
   1.000e+00
   1.000e+00
   1.000e+00
   1.000e+00
   1.000e+00
   1.000e+00
   1.000e+00
   1.000e+00
   1.000e+00
   1.000e+00
   1.000e+00
   1.000e+00
   1.000e+00
   1.000e+00
   1.000e+00
   1.000e+00
   1.000e+00
   1.000e+00
   1.000e+00
   1.000e+00
   1.000e+00
   1.000e+00
   1.000e+00
   1.000e+00
   1.000e+00
   1.000e+00
   1.000e+00
   1.000e+00
   1.000e+00
   1.000e+00
   1.000e+00
   1.000e+00
   1.000e+00
   1.000e+00
   1.000e+00
   1.000e+00
   1.000e+00
   1.000e+00
   1.000e+00
   1.000e+00
   1.000e+00
   1.000e+00
   1.000e+00
   1.000e+00
   1.000e+00
   1.000e+00
   1.000e+00
   1.000e+00
   1.000e+00
   1.000e+00
   1.000e+00
   1.000e+00
   1.000e+00
   1.000e+00
   1.000e+00
   1.000e+00
   1.000e+00
   1.000e+00
   1.000e+00
   1.000e+00
   1.000e+00
   1.000e+00
   1.000e+00
   1.000e+00
   1.000e+00
   1.000e+00
   1.000e+00
   1.000e+00
   1.000e+00
   1.000e+00
   1.000e+00
   1.000e+00
   1.000e+00
   1.000e+00
   1.000e+00
   1.000e+00
   1.000e+00
   1.000e+00
   1.000e+00
   1.000e+00
   1.000e+00
   1.000e+00
   1.000e+00
   1.000e+00
   1.000e+00
   1.000e+00
   1.000e+00
   1.000e+00
   1.000e+00
   1.000e+00
   1.000e+00
   1.000e+00
   1.000e+00
   1.000e+00
   1.000e+00
   1.000e+00
   1.000e+00
   1.000e+00
   1.000e+00
   1.000e+00
   1.000e+00
   1.000e+00
   1.000e+00
   1.000e+00
   1.000e+00
   1.000e+00
   1.000e+00
   1.000e+00
   1.000e+00
   1.000e+00
   1.000e+00
   1.000e+00
   1.000e+00
   1.000e+00
   1.000e+00
   1.000e+00
   1.000e+00
   1.000e+00
   1.000e+00
   1.000e+00
   1.000e+00
   1.000e+00
   1.000e+00
   1.000e+00
   1.000e+00
   1.000e+00
   1.000e+00
   1.000e+00
   1.000e+00
   1.000e+00
   1.000e+00
   1.000e+00
   1.000e+00
   1.000e+00
   1.000e+00
   1.000e+00
   1.000e+00
   1.000e+00
   1.000e+00
   1.000e+00
   1.000e+00
   1.000e+00
   1.000e+00
   1.000e+00
   1.000e+00
   1.000e+00
   1.000e+00
   1.000e+00
   1.000e+00
   1.000e+00
   1.000e+00
   1.000e+00
   1.000e+00
   1.000e+00
   1.000e+00
   1.000e+00
   1.000e+00
   1.000e+00
   1.000e+00
   1.000e+00
   1.000e+00
   1.000e+00
   1.000e+00
   1.000e+00
   1.000e+00
   1.000e+00
   1.000e+00
   1.000e+00
   1.000e+00
   1.000e+00
   1.000e+00
   1.000e+00
   1.000e+00
   1.000e+00
   1.000e+00
   1.000e+00
   1.000e+00
   1.000e+00
   1.000e+00
   1.000e+00
   1.000e+00
   1.000e+00
   1.000e+00
   1.000e+00
   1.000e+00
   1.000e+00
   1.000e+00
   1.000e+00
   1.000e+00
   1.000e+00
   1.000e+00
   1.000e+00
   1.000e+00
   1.000e+00
   1.000e+00
   1.000e+00
   1.000e+00
   1.000e+00
   1.000e+00
   1.000e+00
   1.000e+00
   1.000e+00
   1.000e+00
   1.000e+00
   1.000e+00
   1.000e+00
   1.000e+00
   1.000e+00
   1.000e+00
   1.000e+00
   1.000e+00
   1.000e+00
   1.000e+00
   1.000e+00
   1.000e+00
   1.000e+00
   1.000e+00
   1.000e+00
   1.000e+00
   1.000e+00
   1.000e+00
   1.000e+00
   1.000e+00
   1.000e+00
   1.000e+00
   1.000e+00
   1.000e+00
   1.000e+00
   1.000e+00
   1.000e+00
   1.000e+00
   1.000e+00
   1.000e+00
   1.000e+00
   1.000e+00
   1.000e+00
   1.000e+00
   1.000e+00
   1.000e+00
   1.000e+00
   1.000e+00
   1.000e+00
   1.000e+00
   1.000e+00
   1.000e+00
   1.000e+00
   1.000e+00
   1.000e+00
   1.000e+00
   1.000e+00
   1.000e+00
   1.000e+00
   1.000e+00
   1.000e+00
   1.000e+00
   1.000e+00
   1.000e+00
   1.000e+00
   1.000e+00
   1.000e+00
   1.000e+00
   1.000e+00
   1.000e+00
   1.000e+00
   1.000e+00
   1.000e+00
   1.000e+00
   1.000e+00
   1.000e+00
   1.000e+00
   1.000e+00
   1.000e+00
   1.000e+00
   1.000e+00
   1.000e+00
   1.000e+00
   1.000e+00
   1.000e+00
   1.000e+00
   1.000e+00
   1.000e+00
   1.000e+00
   1.000e+00
   1.000e+00
   1.000e+00
   1.000e+00
   1.000e+00
   1.000e+00
   1.000e+00
   1.000e+00
   1.000e+00
   1.000e+00
   1.000e+00
   1.000e+00
   1.000e+00
   1.000e+00
   1.000e+00
   1.000e+00
   1.000e+00
   1.000e+00
   1.000e+00
   1.000e+00
   1.000e+00
   1.000e+00
   1.000e+00
   1.000e+00
   1.000e+00
   1.000e+00
   1.000e+00
   1.000e+00
   1.000e+00
   1.000e+00
   1.000e+00
   1.000e+00
   1.000e+00
   1.000e+00
   1.000e+00
   1.000e+00
   1.000e+00
   1.000e+00
   1.000e+00
   1.000e+00
   1.000e+00
   1.000e+00
   1.000e+00
   1.000e+00
   1.000e+00
   1.000e+00
   1.000e+00
   1.000e+00
   1.000e+00
   1.000e+00
   1.000e+00
   1.000e+00
   1.000e+00
   1.000e+00
   1.000e+00
   1.000e+00
   1.000e+00
   1.000e+00
   1.000e+00
   1.000e+00
   1.000e+00
   1.000e+00
   1.000e+00
   1.000e+00
   1.000e+00
   1.000e+00
   1.000e+00
   1.000e+00
   1.000e+00
   1.000e+00
   1.000e+00
   1.000e+00
   1.000e+00
   1.000e+00
   1.000e+00
   1.000e+00
   1.000e+00
   1.000e+00
   1.000e+00
   1.000e+00
   1.000e+00
   1.000e+00
   1.000e+00
   1.000e+00
   1.000e+00
   1.000e+00
   1.000e+00
   1.000e+00
   1.000e+00
   1.000e+00
   1.000e+00
   1.000e+00
   1.000e+00
   1.000e+00
   1.000e+00
   1.000e+00
   1.000e+00
   1.000e+00
   1.000e+00
   1.000e+00
   1.000e+00
   1.000e+00
   1.000e+00
   1.000e+00
   1.000e+00
   1.000e+00
   1.000e+00
   1.000e+00
   1.000e+00
   1.000e+00
   1.000e+00
   1.000e+00
   1.000e+00
   1.000e+00
   1.000e+00
   1.000e+00
   1.000e+00
   1.000e+00
   1.000e+00
   1.000e+00
   1.000e+00
   1.000e+00
   1.000e+00
   1.000e+00
   1.000e+00
   1.000e+00
   1.000e+00
   1.000e+00
   1.000e+00
   1.000e+00
   1.000e+00
   1.000e+00
   1.000e+00
   1.000e+00
   1.000e+00
   1.000e+00
   1.000e+00
   1.000e+00
   1.000e+00
   1.000e+00
   1.000e+00
   1.000e+00
   1.000e+00
   1.000e+00
   1.000e+00
   1.000e+00
   1.000e+00
   1.000e+00
   1.000e+00
   1.000e+00
   1.000e+00
   1.000e+00
   1.000e+00
   1.000e+00
   1.000e+00
   1.000e+00
   1.000e+00
   1.000e+00
   1.000e+00
   1.000e+00
   1.000e+00
   1.000e+00
   1.000e+00
   1.000e+00
   1.000e+00
   1.000e+00
   1.000e+00
   1.000e+00
   1.000e+00
   1.000e+00
   1.000e+00
   1.000e+00
   1.000e+00
   1.000e+00
   1.000e+00
   1.000e+00
   1.000e+00
   1.000e+00
   1.000e+00
   1.000e+00
   1.000e+00
   1.000e+00
   1.000e+00
   1.000e+00
   1.000e+00
   1.000e+00
   1.000e+00
   1.000e+00
   1.000e+00
   1.000e+00
   1.000e+00
   1.000e+00
   1.000e+00
   1.000e+00
   1.000e+00
   1.000e+00
   1.000e+00
   1.000e+00
   1.000e+00
   1.000e+00
   1.000e+00
   1.000e+00
   1.000e+00
   1.000e+00
   1.000e+00
   1.000e+00
   1.000e+00
   1.000e+00
   1.000e+00
   1.000e+00
   1.000e+00
   1.000e+00
   1.000e+00
   1.000e+00
   1.000e+00
   1.000e+00
   1.000e+00
   1.000e+00
   1.000e+00
   1.000e+00
   1.000e+00
   1.000e+00
   1.000e+00
   1.000e+00
   1.000e+00
   1.000e+00
   1.000e+00
   1.000e+00
   1.000e+00
   1.000e+00
   1.000e+00
   1.000e+00
   1.000e+00
   1.000e+00
   1.000e+00
   1.000e+00
   1.000e+00
   1.000e+00
   1.000e+00
   1.000e+00
   1.000e+00
   1.000e+00
   1.000e+00
   1.000e+00
   1.000e+00
   1.000e+00
   1.000e+00
   1.000e+00
   1.000e+00
   1.000e+00
   1.000e+00
   1.000e+00
   1.000e+00
   1.000e+00
   1.000e+00
   1.000e+00
   1.000e+00
   1.000e+00
   1.000e+00
   1.000e+00
   1.000e+00
   1.000e+00
   1.000e+00
   1.000e+00
   1.000e+00
   1.000e+00
   1.000e+00
   1.000e+00
   1.000e+00
   1.000e+00
   1.000e+00
   1.000e+00
   1.000e+00
   1.000e+00
   1.000e+00
   1.000e+00
   1.000e+00
   1.000e+00
   1.000e+00
   1.000e+00
   1.000e+00
   1.000e+00
   1.000e+00
   1.000e+00
   1.000e+00
   1.000e+00
   1.000e+00
   1.000e+00
   1.000e+00
   1.000e+00
   1.000e+00
   1.000e+00
   1.000e+00
   1.000e+00
   1.000e+00
   1.000e+00
   1.000e+00
   1.000e+00
   1.000e+00
   1.000e+00
   1.000e+00
   1.000e+00
   1.000e+00
   1.000e+00
   1.000e+00
   1.000e+00
   1.000e+00
   1.000e+00
   1.000e+00
   1.000e+00
   1.000e+00
   1.000e+00
   1.000e+00
   1.000e+00
   1.000e+00
   1.000e+00
   1.000e+00
   1.000e+00
   1.000e+00
   1.000e+00
   1.000e+00
   1.000e+00
   1.000e+00
   1.000e+00
   1.000e+00
   1.000e+00
   1.000e+00
   1.000e+00
   1.000e+00
   1.000e+00
   1.000e+00
   1.000e+00
   1.000e+00
   1.000e+00
   1.000e+00
   1.000e+00
   1.000e+00
   1.000e+00
   1.000e+00
   1.000e+00
   1.000e+00
   1.000e+00
   1.000e+00
   1.000e+00
   1.000e+00
   1.000e+00
   1.000e+00
   1.000e+00
   1.000e+00
   1.000e+00
   1.000e+00
   1.000e+00
   1.000e+00
   1.000e+00
   1.000e+00
   1.000e+00
   1.000e+00
   1.000e+00
   1.000e+00
   1.000e+00
   1.000e+00
   1.000e+00
   1.000e+00
   1.000e+00
   1.000e+00
   1.000e+00
   1.000e+00
   1.000e+00
   1.000e+00
   1.000e+00
   1.000e+00
   1.000e+00
   1.000e+00
   1.000e+00
   1.000e+00
   1.000e+00
   1.000e+00
   1.000e+00
   1.000e+00
   1.000e+00
   1.000e+00
   1.000e+00
   1.000e+00
   1.000e+00
   1.000e+00
   1.000e+00
   1.000e+00
   1.000e+00
   1.000e+00
   1.000e+00
   1.000e+00
   1.000e+00
   1.000e+00
   1.000e+00
   1.000e+00
   1.000e+00
   1.000e+00
   1.000e+00
   1.000e+00
   1.000e+00
   1.000e+00
   1.000e+00
   1.000e+00
   1.000e+00
   1.000e+00
   1.000e+00
   1.000e+00
   1.000e+00
   1.000e+00
   1.000e+00
   1.000e+00
   1.000e+00
   1.000e+00
   1.000e+00
   1.000e+00
   1.000e+00
   1.000e+00
   1.000e+00
   1.000e+00
   1.000e+00
   1.000e+00
   1.000e+00
   1.000e+00
   1.000e+00
   1.000e+00
   1.000e+00
   1.000e+00
   1.000e+00
   1.000e+00
   1.000e+00
   1.000e+00
   1.000e+00
   1.000e+00
   1.000e+00
   1.000e+00
   1.000e+00
   1.000e+00
   1.000e+00
   1.000e+00
   1.000e+00
   1.000e+00
   1.000e+00
   1.000e+00
   1.000e+00
   1.000e+00
   1.000e+00
   1.000e+00
   1.000e+00
   1.000e+00
   1.000e+00
   1.000e+00
   1.000e+00
   1.000e+00
   1.000e+00
   1.000e+00
   1.000e+00
   1.000e+00
   1.000e+00
   1.000e+00
   1.000e+00
   1.000e+00
   1.000e+00
   1.000e+00
   1.000e+00
   1.000e+00
   1.000e+00
   1.000e+00
   1.000e+00
   1.000e+00
   1.000e+00
   1.000e+00
   1.000e+00
   1.000e+00
   1.000e+00
   1.000e+00
   1.000e+00
   1.000e+00
   1.000e+00
   1.000e+00
   1.000e+00
   1.000e+00
   1.000e+00
   1.000e+00
   1.000e+00
   1.000e+00
   1.000e+00
   1.000e+00
   1.000e+00
   1.000e+00
   1.000e+00
   1.000e+00
   1.000e+00
   1.000e+00
   1.000e+00
   1.000e+00
   1.000e+00
   1.000e+00
   1.000e+00
   1.000e+00
   1.000e+00
   1.000e+00
   1.000e+00
   1.000e+00
   1.000e+00
   1.000e+00
   1.000e+00
   1.000e+00
   1.000e+00
   1.000e+00
   1.000e+00
   1.000e+00
   1.000e+00
   1.000e+00
   1.000e+00
   1.000e+00
   1.000e+00
   1.000e+00
   1.000e+00
   1.000e+00
   1.000e+00
   1.000e+00
   1.000e+00
   1.000e+00
   1.000e+00
   1.000e+00
   1.000e+00
   1.000e+00
   1.000e+00
   1.000e+00
   1.000e+00
   1.000e+00
   1.000e+00
   1.000e+00
   1.000e+00
   1.000e+00
   1.000e+00
   1.000e+00
   1.000e+00
   1.000e+00
   1.000e+00
   1.000e+00
   1.000e+00
   1.000e+00
   1.000e+00
   1.000e+00
   1.000e+00
   1.000e+00
   1.000e+00
   1.000e+00
   1.000e+00
   1.000e+00
   1.000e+00
   1.000e+00
   1.000e+00
   1.000e+00
   1.000e+00
   1.000e+00
   1.000e+00
   1.000e+00
   1.000e+00
   1.000e+00
   1.000e+00
   1.000e+00
   1.000e+00
   1.000e+00
   1.000e+00
   1.000e+00
   1.000e+00
   1.000e+00
   1.000e+00
   1.000e+00
   1.000e+00
   1.000e+00
   1.000e+00
   1.000e+00
   1.000e+00
   1.000e+00
   1.000e+00
   1.000e+00
   1.000e+00
   1.000e+00
   1.000e+00
   1.000e+00
   1.000e+00
   1.000e+00
   1.000e+00
   1.000e+00
   1.000e+00
   1.000e+00
   1.000e+00
   1.000e+00
   1.000e+00
   1.000e+00
   1.000e+00
   1.000e+00
   1.000e+00
   1.000e+00
   1.000e+00
   1.000e+00
   1.000e+00
   1.000e+00
   1.000e+00
   1.000e+00
   1.000e+00
   1.000e+00
   1.000e+00
   1.000e+00
   1.000e+00
   1.000e+00
   1.000e+00
   1.000e+00
   1.000e+00
   1.000e+00
   1.000e+00
   1.000e+00
   1.000e+00
   1.000e+00
   1.000e+00
   1.000e+00
   1.000e+00
   1.000e+00
   1.000e+00
   1.000e+00
   1.000e+00
   1.000e+00
   1.000e+00
   1.000e+00
   1.000e+00
   1.000e+00
   1.000e+00
   1.000e+00
   1.000e+00
   1.000e+00
   1.000e+00
   1.000e+00
   1.000e+00
   1.000e+00
   1.000e+00
   1.000e+00
   1.000e+00
   1.000e+00
   1.000e+00
   1.000e+00
   1.000e+00
   1.000e+00
   1.000e+00
   1.000e+00
   1.000e+00
   1.000e+00
   1.000e+00
   1.000e+00
   1.000e+00
   1.000e+00
   1.000e+00
   1.000e+00
   1.000e+00
   1.000e+00
   1.000e+00
   1.000e+00
   1.000e+00
   1.000e+00
   1.000e+00
   1.000e+00
   1.000e+00
   1.000e+00
   1.000e+00
   1.000e+00
   1.000e+00
   1.000e+00
   1.000e+00
   1.000e+00
   1.000e+00
   1.000e+00
   1.000e+00
   1.000e+00
   1.000e+00
   1.000e+00
   1.000e+00
   1.000e+00
   1.000e+00
   1.000e+00
   1.000e+00
   1.000e+00
   1.000e+00
   1.000e+00
   1.000e+00
   1.000e+00
   1.000e+00
   1.000e+00
   1.000e+00
   1.000e+00
   1.000e+00
   1.000e+00
   1.000e+00
   1.000e+00
   1.000e+00
   1.000e+00
   1.000e+00
   1.000e+00
   1.000e+00
   1.000e+00
   1.000e+00
   1.000e+00
   1.000e+00
   1.000e+00
   1.000e+00
   1.000e+00
   1.000e+00
   1.000e+00
   1.000e+00
   1.000e+00
   1.000e+00
   1.000e+00
   1.000e+00
   1.000e+00
   1.000e+00
   1.000e+00
   1.000e+00
   1.000e+00
   1.000e+00
   1.000e+00
   1.000e+00
   1.000e+00
   1.000e+00
   1.000e+00
   1.000e+00
   1.000e+00
   1.000e+00
   1.000e+00
   1.000e+00
   1.000e+00
   1.000e+00
   1.000e+00
   1.000e+00
   1.000e+00
   1.000e+00
   1.000e+00
   1.000e+00
   1.000e+00
   1.000e+00
   1.000e+00
   1.000e+00
   1.000e+00
   1.000e+00
   1.000e+00
   1.000e+00
   1.000e+00
   1.000e+00
   1.000e+00
   1.000e+00
   1.000e+00
   1.000e+00
   1.000e+00
   1.000e+00
   1.000e+00
   1.000e+00
   1.000e+00
   1.000e+00
   1.000e+00
   1.000e+00
   1.000e+00
   1.000e+00
   1.000e+00
   1.000e+00
   1.000e+00
   1.000e+00
   1.000e+00
   1.000e+00
   1.000e+00
   1.000e+00
   1.000e+00
   1.000e+00
   1.000e+00
   1.000e+00
   1.000e+00
   1.000e+00
   1.000e+00
   1.000e+00
   1.000e+00
   1.000e+00
   1.000e+00
   1.000e+00
   1.000e+00
   1.000e+00
   1.000e+00
   1.000e+00
   1.000e+00
   1.000e+00
   1.000e+00
   1.000e+00
   1.000e+00
   1.000e+00
   1.000e+00
   1.000e+00
   1.000e+00
   1.000e+00
   1.000e+00
   1.000e+00
   1.000e+00
   1.000e+00
   1.000e+00
   1.000e+00
   1.000e+00
   1.000e+00
   1.000e+00
   1.000e+00
   1.000e+00
   1.000e+00
   1.000e+00
   1.000e+00
   1.000e+00
   1.000e+00
   1.000e+00
   1.000e+00
   1.000e+00
   1.000e+00
   1.000e+00
   1.000e+00
   1.000e+00
   1.000e+00
   1.000e+00
   1.000e+00
   1.000e+00
   1.000e+00
   1.000e+00
   1.000e+00
   1.000e+00
   1.000e+00
   1.000e+00
   1.000e+00
   1.000e+00
   1.000e+00
   1.000e+00
   1.000e+00
   1.000e+00
   1.000e+00
   1.000e+00
   1.000e+00
   1.000e+00
   1.000e+00
   1.000e+00
   1.000e+00
   1.000e+00
   1.000e+00
   1.000e+00
   1.000e+00
   1.000e+00
   1.000e+00
   1.000e+00
   1.000e+00
   1.000e+00
   1.000e+00
   1.000e+00
   1.000e+00
   1.000e+00
   1.000e+00
   1.000e+00
   1.000e+00
   1.000e+00
   1.000e+00
   1.000e+00
   1.000e+00
   1.000e+00
   1.000e+00
   1.000e+00
   1.000e+00
   1.000e+00
   1.000e+00
   1.000e+00
   1.000e+00
   1.000e+00
   1.000e+00
   1.000e+00
   1.000e+00
   1.000e+00
   1.000e+00
   1.000e+00
   1.000e+00
   1.000e+00
   1.000e+00
   1.000e+00
   1.000e+00
   1.000e+00
   1.000e+00
   1.000e+00
   1.000e+00
   1.000e+00
   1.000e+00
   1.000e+00
   1.000e+00
   1.000e+00
   1.000e+00
   1.000e+00
   1.000e+00
   1.000e+00
   1.000e+00
   1.000e+00
   1.000e+00
   1.000e+00
   1.000e+00
   1.000e+00
   1.000e+00
   1.000e+00
   1.000e+00
   1.000e+00
   1.000e+00
   1.000e+00
   1.000e+00
   1.000e+00
   1.000e+00
   1.000e+00
   1.000e+00
   1.000e+00
   1.000e+00
   1.000e+00
   1.000e+00
   1.000e+00
   1.000e+00
   1.000e+00
   1.000e+00
   1.000e+00
   1.000e+00
   1.000e+00
   1.000e+00
   1.000e+00
   1.000e+00
   1.000e+00
   1.000e+00
   1.000e+00
   1.000e+00
   1.000e+00
   1.000e+00
   1.000e+00
   1.000e+00
   1.000e+00
   1.000e+00
   1.000e+00
   1.000e+00
   1.000e+00
   1.000e+00
   1.000e+00
   1.000e+00
   1.000e+00
   1.000e+00
   1.000e+00
   1.000e+00
   1.000e+00
   1.000e+00
   1.000e+00
   1.000e+00
   1.000e+00
   1.000e+00
   1.000e+00
   1.000e+00
   1.000e+00
   1.000e+00
   1.000e+00
   1.000e+00
   1.000e+00
   1.000e+00
   1.000e+00
   1.000e+00
   1.000e+00
   1.000e+00
   1.000e+00
   1.000e+00
   1.000e+00
   1.000e+00
   1.000e+00
   1.000e+00
   1.000e+00
   1.000e+00
   1.000e+00
   1.000e+00
   1.000e+00
   1.000e+00
   1.000e+00
   1.000e+00
   1.000e+00
   1.000e+00
   1.000e+00
   1.000e+00
   1.000e+00
   1.000e+00
   1.000e+00
   1.000e+00
   1.000e+00
   1.000e+00
   1.000e+00
   1.000e+00
   1.000e+00
   1.000e+00
   1.000e+00
   1.000e+00
   1.000e+00
   1.000e+00
   1.000e+00
   1.000e+00
   1.000e+00
   1.000e+00
   1.000e+00
   1.000e+00
   1.000e+00
   1.000e+00
   1.000e+00
   1.000e+00
   1.000e+00
   1.000e+00
   1.000e+00
   1.000e+00
   1.000e+00
   1.000e+00
   1.000e+00
   1.000e+00
   1.000e+00
   1.000e+00
   1.000e+00
   1.000e+00
   1.000e+00
   1.000e+00
   1.000e+00
   1.000e+00
   1.000e+00
   1.000e+00
   1.000e+00
   1.000e+00
   1.000e+00
   1.000e+00
   1.000e+00
   1.000e+00
   1.000e+00
   1.000e+00
   1.000e+00
   1.000e+00
   1.000e+00
   1.000e+00
   1.000e+00
   1.000e+00
   1.000e+00
   1.000e+00
   1.000e+00
   1.000e+00
   1.000e+00
   1.000e+00
   1.000e+00
   1.000e+00
   1.000e+00
   1.000e+00
   1.000e+00
   1.000e+00
   1.000e+00
   1.000e+00
   1.000e+00
   1.000e+00
   1.000e+00
   1.000e+00
   1.000e+00
   1.000e+00
   1.000e+00
   1.000e+00
   1.000e+00
   1.000e+00
   1.000e+00
   1.000e+00
   1.000e+00
   1.000e+00
   1.000e+00
   1.000e+00
   1.000e+00
   1.000e+00
   1.000e+00
   1.000e+00
   1.000e+00
   1.000e+00
   1.000e+00
   1.000e+00
   1.000e+00
   1.000e+00
   1.000e+00
   1.000e+00
   1.000e+00
   1.000e+00
   1.000e+00
   1.000e+00
   1.000e+00
   1.000e+00
   1.000e+00
   1.000e+00
   1.000e+00
   1.000e+00
   1.000e+00
   1.000e+00
   1.000e+00
   1.000e+00
   1.000e+00
   1.000e+00
   1.000e+00
   1.000e+00
   1.000e+00
   1.000e+00
   1.000e+00
   1.000e+00
   1.000e+00
   1.000e+00
   1.000e+00
   1.000e+00
   1.000e+00
   1.000e+00
   1.000e+00
   1.000e+00
   1.000e+00
   1.000e+00
   1.000e+00
   1.000e+00
   1.000e+00
   1.000e+00
   1.000e+00
   1.000e+00
   1.000e+00
   1.000e+00
   1.000e+00
   1.000e+00
   1.000e+00
   1.000e+00
   1.000e+00
   1.000e+00
   1.000e+00
   1.000e+00
   1.000e+00
   1.000e+00
   1.000e+00
   1.000e+00
   1.000e+00
   1.000e+00
   1.000e+00
   1.000e+00
   1.000e+00
   1.000e+00
   1.000e+00
   1.000e+00
   1.000e+00
   1.000e+00
   1.000e+00
   1.000e+00
   1.000e+00
   1.000e+00
   1.000e+00
   1.000e+00
   1.000e+00
   1.000e+00
   1.000e+00
   1.000e+00
   1.000e+00
   1.000e+00
   1.000e+00
   1.000e+00
   1.000e+00
   1.000e+00
   1.000e+00
   1.000e+00
   1.000e+00
   1.000e+00
   1.000e+00
   1.000e+00
   1.000e+00
   1.000e+00
   1.000e+00
   1.000e+00
   1.000e+00
   1.000e+00
   1.000e+00
   1.000e+00
   1.000e+00
   1.000e+00
   1.000e+00
   1.000e+00
   1.000e+00
   1.000e+00
   1.000e+00
   1.000e+00
   1.000e+00
   1.000e+00
   1.000e+00
   1.000e+00
   1.000e+00
   1.000e+00
   1.000e+00
   1.000e+00
   1.000e+00
   1.000e+00
   1.000e+00
   1.000e+00
   1.000e+00
   1.000e+00
   1.000e+00
   1.000e+00
   1.000e+00
   1.000e+00
   1.000e+00
   1.000e+00
   1.000e+00
   1.000e+00
   1.000e+00
   1.000e+00
   1.000e+00
   1.000e+00
   1.000e+00
   1.000e+00
   1.000e+00
   1.000e+00
   1.000e+00
   1.000e+00
   1.000e+00
   1.000e+00
   1.000e+00
   1.000e+00
   1.000e+00
   1.000e+00
   1.000e+00
   1.000e+00
   1.000e+00
   1.000e+00
   1.000e+00
   1.000e+00
   1.000e+00
   1.000e+00
   1.000e+00
   1.000e+00
   1.000e+00
   1.000e+00
   1.000e+00
   1.000e+00
   1.000e+00
   1.000e+00
   1.000e+00
   1.000e+00
   1.000e+00
   1.000e+00
   1.000e+00
   1.000e+00
   1.000e+00
   1.000e+00
   1.000e+00
   1.000e+00
   1.000e+00
   1.000e+00
   1.000e+00
   1.000e+00
   1.000e+00
   1.000e+00
   1.000e+00
   1.000e+00
   1.000e+00
   1.000e+00
   1.000e+00
   1.000e+00
   1.000e+00
   1.000e+00
   1.000e+00
   1.000e+00
   1.000e+00
   1.000e+00
   1.000e+00
   1.000e+00
   1.000e+00
   1.000e+00
   1.000e+00
   1.000e+00
   1.000e+00
   1.000e+00
   1.000e+00
   1.000e+00
   1.000e+00
   1.000e+00
   1.000e+00
   1.000e+00
   1.000e+00
   1.000e+00
   1.000e+00
   1.000e+00
   1.000e+00
   1.000e+00
   1.000e+00
   1.000e+00
   1.000e+00
   1.000e+00
   1.000e+00
   1.000e+00
   1.000e+00
   1.000e+00
   1.000e+00
   1.000e+00
   1.000e+00
   1.000e+00
   1.000e+00
   1.000e+00
   1.000e+00
   1.000e+00
   1.000e+00
   1.000e+00
   1.000e+00
   1.000e+00
   1.000e+00
   1.000e+00
   1.000e+00
   1.000e+00
   1.000e+00
   1.000e+00
   1.000e+00
   1.000e+00
   1.000e+00
   1.000e+00
   1.000e+00
   1.000e+00
   1.000e+00
   1.000e+00
   1.000e+00
   1.000e+00
   1.000e+00
   1.000e+00
   1.000e+00
   1.000e+00
   1.000e+00
   1.000e+00

SCALARS vonMisesStress float
LOOKUP_TABLE default
   0.000e+00
   0.000e+00
   0.000e+00
   0.000e+00
   0.000e+00
   0.000e+00
   0.000e+00
   0.000e+00
   0.000e+00
   0.000e+00
   0.000e+00
   0.000e+00
   0.000e+00
   0.000e+00
   0.000e+00
   0.000e+00
   0.000e+00
   0.000e+00
   0.000e+00
   0.000e+00
   0.000e+00
   0.000e+00
   0.000e+00
   0.000e+00
   0.000e+00
   0.000e+00
   0.000e+00
   0.000e+00
   0.000e+00
   0.000e+00
   0.000e+00
   0.000e+00
   0.000e+00
   0.000e+00
   0.000e+00
   0.000e+00
   0.000e+00
   0.000e+00
   0.000e+00
   0.000e+00
   0.000e+00
   0.000e+00
   0.000e+00
   0.000e+00
   0.000e+00
   0.000e+00
   0.000e+00
   0.000e+00
   0.000e+00
   0.000e+00
   0.000e+00
   0.000e+00
   0.000e+00
   0.000e+00
   0.000e+00
   0.000e+00
   0.000e+00
   0.000e+00
   0.000e+00
   0.000e+00
   0.000e+00
   0.000e+00
   0.000e+00
   0.000e+00
   0.000e+00
   0.000e+00
   0.000e+00
   0.000e+00
   0.000e+00
   0.000e+00
   0.000e+00
   0.000e+00
   0.000e+00
   0.000e+00
   0.000e+00
   0.000e+00
   0.000e+00
   0.000e+00
   0.000e+00
   0.000e+00
   0.000e+00
   0.000e+00
   0.000e+00
   0.000e+00
   0.000e+00
   0.000e+00
   0.000e+00
   0.000e+00
   0.000e+00
   0.000e+00
   0.000e+00
   0.000e+00
   0.000e+00
   0.000e+00
   0.000e+00
   0.000e+00
   0.000e+00
   0.000e+00
   0.000e+00
   0.000e+00
   0.000e+00
   0.000e+00
   0.000e+00
   0.000e+00
   0.000e+00
   0.000e+00
   0.000e+00
   0.000e+00
   0.000e+00
   0.000e+00
   0.000e+00
   0.000e+00
   0.000e+00
   0.000e+00
   0.000e+00
   0.000e+00
   0.000e+00
   0.000e+00
   0.000e+00
   0.000e+00
   0.000e+00
   0.000e+00
   0.000e+00
   0.000e+00
   0.000e+00
   0.000e+00
   0.000e+00
   0.000e+00
   0.000e+00
   0.000e+00
   0.000e+00
   0.000e+00
   0.000e+00
   0.000e+00
   0.000e+00
   0.000e+00
   0.000e+00
   0.000e+00
   0.000e+00
   0.000e+00
   0.000e+00
   0.000e+00
   0.000e+00
   0.000e+00
   0.000e+00
   0.000e+00
   0.000e+00
   0.000e+00
   0.000e+00
   0.000e+00
   0.000e+00
   0.000e+00
   0.000e+00
   0.000e+00
   0.000e+00
   0.000e+00
   0.000e+00
   0.000e+00
   0.000e+00
   0.000e+00
   0.000e+00
   0.000e+00
   0.000e+00
   0.000e+00
   0.000e+00
   0.000e+00
   0.000e+00
   0.000e+00
   0.000e+00
   0.000e+00
   0.000e+00
   0.000e+00
   0.000e+00
   0.000e+00
   0.000e+00
   0.000e+00
   0.000e+00
   0.000e+00
   0.000e+00
   0.000e+00
   0.000e+00
   0.000e+00
   0.000e+00
   0.000e+00
   0.000e+00
   0.000e+00
   0.000e+00
   0.000e+00
   0.000e+00
   0.000e+00
   0.000e+00
   0.000e+00
   0.000e+00
   0.000e+00
   0.000e+00
   0.000e+00
   0.000e+00
   0.000e+00
   0.000e+00
   0.000e+00
   0.000e+00
   0.000e+00
   0.000e+00
   0.000e+00
   0.000e+00
   0.000e+00
   0.000e+00
   0.000e+00
   0.000e+00
   0.000e+00
   0.000e+00
   0.000e+00
   0.000e+00
   0.000e+00
   0.000e+00
   0.000e+00
   0.000e+00
   0.000e+00
   0.000e+00
   0.000e+00
   0.000e+00
   0.000e+00
   0.000e+00
   0.000e+00
   0.000e+00
   0.000e+00
   0.000e+00
   0.000e+00
   0.000e+00
   0.000e+00
   0.000e+00
   0.000e+00
   0.000e+00
   0.000e+00
   0.000e+00
   0.000e+00
   0.000e+00
   0.000e+00
   0.000e+00
   0.000e+00
   0.000e+00
   0.000e+00
   0.000e+00
   0.000e+00
   0.000e+00
   0.000e+00
   0.000e+00
   0.000e+00
   0.000e+00
   0.000e+00
   0.000e+00
   0.000e+00
   0.000e+00
   0.000e+00
   0.000e+00
   0.000e+00
   0.000e+00
   0.000e+00
   0.000e+00
   0.000e+00
   0.000e+00
   0.000e+00
   0.000e+00
   0.000e+00
   0.000e+00
   0.000e+00
   0.000e+00
   0.000e+00
   0.000e+00
   0.000e+00
   0.000e+00
   0.000e+00
   0.000e+00
   0.000e+00
   0.000e+00
   0.000e+00
   0.000e+00
   0.000e+00
   0.000e+00
   0.000e+00
   0.000e+00
   0.000e+00
   0.000e+00
   0.000e+00
   0.000e+00
   0.000e+00
   0.000e+00
   0.000e+00
   0.000e+00
   0.000e+00
   0.000e+00
   0.000e+00
   0.000e+00
   0.000e+00
   0.000e+00
   0.000e+00
   0.000e+00
   0.000e+00
   0.000e+00
   0.000e+00
   0.000e+00
   0.000e+00
   0.000e+00
   0.000e+00
   0.000e+00
   0.000e+00
   0.000e+00
   0.000e+00
   0.000e+00
   0.000e+00
   0.000e+00
   0.000e+00
   0.000e+00
   0.000e+00
   0.000e+00
   0.000e+00
   0.000e+00
   0.000e+00
   0.000e+00
   0.000e+00
   0.000e+00
   0.000e+00
   0.000e+00
   0.000e+00
   0.000e+00
   0.000e+00
   0.000e+00
   0.000e+00
   0.000e+00
   0.000e+00
   0.000e+00
   0.000e+00
   0.000e+00
   0.000e+00
   0.000e+00
   0.000e+00
   0.000e+00
   0.000e+00
   0.000e+00
   0.000e+00
   0.000e+00
   0.000e+00
   0.000e+00
   0.000e+00
   0.000e+00
   0.000e+00
   0.000e+00
   0.000e+00
   0.000e+00
   0.000e+00
   0.000e+00
   0.000e+00
   0.000e+00
   0.000e+00
   0.000e+00
   0.000e+00
   0.000e+00
   0.000e+00
   0.000e+00
   0.000e+00
   0.000e+00
   0.000e+00
   0.000e+00
   0.000e+00
   0.000e+00
   0.000e+00
   0.000e+00
   0.000e+00
   0.000e+00
   0.000e+00
   0.000e+00
   0.000e+00
   0.000e+00
   0.000e+00
   0.000e+00
   0.000e+00
   0.000e+00
   0.000e+00
   0.000e+00
   0.000e+00
   0.000e+00
   0.000e+00
   0.000e+00
   0.000e+00
   0.000e+00
   0.000e+00
   0.000e+00
   0.000e+00
   0.000e+00
   0.000e+00
   0.000e+00
   0.000e+00
   0.000e+00
   0.000e+00
   0.000e+00
   0.000e+00
   0.000e+00
   0.000e+00
   0.000e+00
   0.000e+00
   0.000e+00
   0.000e+00
   0.000e+00
   0.000e+00
   0.000e+00
   0.000e+00
   0.000e+00
   0.000e+00
   0.000e+00
   0.000e+00
   0.000e+00
   0.000e+00
   0.000e+00
   0.000e+00
   0.000e+00
   0.000e+00
   0.000e+00
   0.000e+00
   0.000e+00
   0.000e+00
   0.000e+00
   0.000e+00
   0.000e+00
   0.000e+00
   0.000e+00
   0.000e+00
   0.000e+00
   0.000e+00
   0.000e+00
   0.000e+00
   0.000e+00
   0.000e+00
   0.000e+00
   0.000e+00
   0.000e+00
   0.000e+00
   0.000e+00
   0.000e+00
   0.000e+00
   0.000e+00
   0.000e+00
   0.000e+00
   0.000e+00
   0.000e+00
   0.000e+00
   0.000e+00
   0.000e+00
   0.000e+00
   0.000e+00
   0.000e+00
   0.000e+00
   0.000e+00
   0.000e+00
   0.000e+00
   0.000e+00
   0.000e+00
   0.000e+00
   0.000e+00
   0.000e+00
   0.000e+00
   0.000e+00
   0.000e+00
   0.000e+00
   0.000e+00
   0.000e+00
   0.000e+00
   0.000e+00
   0.000e+00
   0.000e+00
   0.000e+00
   0.000e+00
   0.000e+00
   0.000e+00
   0.000e+00
   0.000e+00
   0.000e+00
   0.000e+00
   0.000e+00
   0.000e+00
   0.000e+00
   0.000e+00
   0.000e+00
   0.000e+00
   0.000e+00
   0.000e+00
   0.000e+00
   0.000e+00
   0.000e+00
   0.000e+00
   0.000e+00
   0.000e+00
   0.000e+00
   0.000e+00
   0.000e+00
   0.000e+00
   0.000e+00
   0.000e+00
   0.000e+00
   0.000e+00
   0.000e+00
   0.000e+00
   0.000e+00
   0.000e+00
   0.000e+00
   0.000e+00
   0.000e+00
   0.000e+00
   0.000e+00
   0.000e+00
   0.000e+00
   0.000e+00
   0.000e+00
   0.000e+00
   0.000e+00
   0.000e+00
   0.000e+00
   0.000e+00
   0.000e+00
   0.000e+00
   0.000e+00
   0.000e+00
   0.000e+00
   0.000e+00
   0.000e+00
   0.000e+00
   0.000e+00
   0.000e+00
   0.000e+00
   0.000e+00
   0.000e+00
   0.000e+00
   0.000e+00
   0.000e+00
   0.000e+00
   0.000e+00
   0.000e+00
   0.000e+00
   0.000e+00
   0.000e+00
   0.000e+00
   0.000e+00
   0.000e+00
   0.000e+00
   0.000e+00
   0.000e+00
   0.000e+00
   0.000e+00
   0.000e+00
   0.000e+00
   0.000e+00
   0.000e+00
   0.000e+00
   0.000e+00
   0.000e+00
   0.000e+00
   0.000e+00
   0.000e+00
   0.000e+00
   0.000e+00
   0.000e+00
   0.000e+00
   0.000e+00
   0.000e+00
   0.000e+00
   0.000e+00
   0.000e+00
   0.000e+00
   0.000e+00
   0.000e+00
   0.000e+00
   0.000e+00
   0.000e+00
   0.000e+00
   0.000e+00
   0.000e+00
   0.000e+00
   0.000e+00
   0.000e+00
   0.000e+00
   0.000e+00
   0.000e+00
   0.000e+00
   0.000e+00
   0.000e+00
   0.000e+00
   0.000e+00
   0.000e+00
   0.000e+00
   0.000e+00
   0.000e+00
   0.000e+00
   0.000e+00
   0.000e+00
   0.000e+00
   0.000e+00
   0.000e+00
   0.000e+00
   0.000e+00
   0.000e+00
   0.000e+00
   0.000e+00
   0.000e+00
   0.000e+00
   0.000e+00
   0.000e+00
   0.000e+00
   0.000e+00
   0.000e+00
   0.000e+00
   0.000e+00
   0.000e+00
   0.000e+00
   0.000e+00
   0.000e+00
   0.000e+00
   0.000e+00
   0.000e+00
   0.000e+00
   0.000e+00
   0.000e+00
   0.000e+00
   0.000e+00
   0.000e+00
   0.000e+00
   0.000e+00
   0.000e+00
   0.000e+00
   0.000e+00
   0.000e+00
   0.000e+00
   0.000e+00
   0.000e+00
   0.000e+00
   0.000e+00
   0.000e+00
   0.000e+00
   0.000e+00
   0.000e+00
   0.000e+00
   0.000e+00
   0.000e+00
   0.000e+00
   0.000e+00
   0.000e+00
   0.000e+00
   0.000e+00
   0.000e+00
   0.000e+00
   0.000e+00
   0.000e+00
   0.000e+00
   0.000e+00
   0.000e+00
   0.000e+00
   0.000e+00
   0.000e+00
   0.000e+00
   0.000e+00
   0.000e+00
   0.000e+00
   0.000e+00
   0.000e+00
   0.000e+00
   0.000e+00
   0.000e+00
   0.000e+00
   0.000e+00
   0.000e+00
   0.000e+00
   0.000e+00
   0.000e+00
   0.000e+00
   0.000e+00
   0.000e+00
   0.000e+00
   0.000e+00
   0.000e+00
   0.000e+00
   0.000e+00
   0.000e+00
   0.000e+00
   0.000e+00
   0.000e+00
   0.000e+00
   0.000e+00
   0.000e+00
   0.000e+00
   0.000e+00
   0.000e+00
   0.000e+00
   0.000e+00
   0.000e+00
   0.000e+00
   0.000e+00
   0.000e+00
   0.000e+00
   0.000e+00
   0.000e+00
   0.000e+00
   0.000e+00
   0.000e+00
   0.000e+00
   0.000e+00
   0.000e+00
   0.000e+00
   0.000e+00
   0.000e+00
   0.000e+00
   0.000e+00
   0.000e+00
   0.000e+00
   0.000e+00
   0.000e+00
   0.000e+00
   0.000e+00
   0.000e+00
   0.000e+00
   0.000e+00
   0.000e+00
   0.000e+00
   0.000e+00
   0.000e+00
   0.000e+00
   0.000e+00
   0.000e+00
   0.000e+00
   0.000e+00
   0.000e+00
   0.000e+00
   0.000e+00
   0.000e+00
   0.000e+00
   0.000e+00
   0.000e+00
   0.000e+00
   0.000e+00
   0.000e+00
   0.000e+00
   0.000e+00
   0.000e+00
   0.000e+00
   0.000e+00
   0.000e+00
   0.000e+00
   0.000e+00
   0.000e+00
   0.000e+00
   0.000e+00
   0.000e+00
   0.000e+00
   0.000e+00
   0.000e+00
   0.000e+00
   0.000e+00
   0.000e+00
   0.000e+00
   0.000e+00
   0.000e+00
   0.000e+00
   0.000e+00
   0.000e+00
   0.000e+00
   0.000e+00
   0.000e+00
   0.000e+00
   0.000e+00
   0.000e+00
   0.000e+00
   0.000e+00
   0.000e+00
   0.000e+00
   0.000e+00
   0.000e+00
   0.000e+00
   0.000e+00
   0.000e+00
   0.000e+00
   0.000e+00
   0.000e+00
   0.000e+00
   0.000e+00
   0.000e+00
   0.000e+00
   0.000e+00
   0.000e+00
   0.000e+00
   0.000e+00
   0.000e+00
   0.000e+00
   0.000e+00
   0.000e+00
   0.000e+00
   0.000e+00
   0.000e+00
   0.000e+00
   0.000e+00
   0.000e+00
   0.000e+00
   0.000e+00
   0.000e+00
   0.000e+00
   0.000e+00
   0.000e+00
   0.000e+00
   0.000e+00
   0.000e+00
   0.000e+00
   0.000e+00
   0.000e+00
   0.000e+00
   0.000e+00
   0.000e+00
   0.000e+00
   0.000e+00
   0.000e+00
   0.000e+00
   0.000e+00
   0.000e+00
   0.000e+00
   0.000e+00
   0.000e+00
   0.000e+00
   0.000e+00
   0.000e+00
   0.000e+00
   0.000e+00
   0.000e+00
   0.000e+00
   0.000e+00
   0.000e+00
   0.000e+00
   0.000e+00
   0.000e+00
   0.000e+00
   0.000e+00
   0.000e+00
   0.000e+00
   0.000e+00
   0.000e+00
   0.000e+00
   0.000e+00
   0.000e+00
   0.000e+00
   0.000e+00
   0.000e+00
   0.000e+00
   0.000e+00
   0.000e+00
   0.000e+00
   0.000e+00
   0.000e+00
   0.000e+00
   0.000e+00
   0.000e+00
   0.000e+00
   0.000e+00
   0.000e+00
   0.000e+00
   0.000e+00
   0.000e+00
   0.000e+00
   0.000e+00
   0.000e+00
   0.000e+00
   0.000e+00
   0.000e+00
   0.000e+00
   0.000e+00
   0.000e+00
   0.000e+00
   0.000e+00
   0.000e+00
   0.000e+00
   0.000e+00
   0.000e+00
   0.000e+00
   0.000e+00
   0.000e+00
   0.000e+00
   0.000e+00
   0.000e+00
   0.000e+00
   0.000e+00
   0.000e+00
   0.000e+00
   0.000e+00
   0.000e+00
   0.000e+00
   0.000e+00
   0.000e+00
   0.000e+00
   0.000e+00
   0.000e+00
   0.000e+00
   0.000e+00
   0.000e+00
   0.000e+00
   0.000e+00
   0.000e+00
   0.000e+00
   0.000e+00
   0.000e+00
   0.000e+00
   0.000e+00
   0.000e+00
   0.000e+00
   0.000e+00
   0.000e+00
   0.000e+00
   0.000e+00
   0.000e+00
   0.000e+00
   0.000e+00
   0.000e+00
   0.000e+00
   0.000e+00
   0.000e+00
   0.000e+00
   0.000e+00
   0.000e+00
   0.000e+00
   0.000e+00
   0.000e+00
   0.000e+00
   0.000e+00
   0.000e+00
   0.000e+00
   0.000e+00
   0.000e+00
   0.000e+00
   0.000e+00
   0.000e+00
   0.000e+00
   0.000e+00
   0.000e+00
   0.000e+00
   0.000e+00
   0.000e+00
   0.000e+00
   0.000e+00
   0.000e+00
   0.000e+00
   0.000e+00
   0.000e+00
   0.000e+00
   0.000e+00
   0.000e+00
   0.000e+00
   0.000e+00
   0.000e+00
   0.000e+00
   0.000e+00
   0.000e+00
   0.000e+00
   0.000e+00
   0.000e+00
   0.000e+00
   0.000e+00
   0.000e+00
   0.000e+00
   0.000e+00
   0.000e+00
   0.000e+00
   0.000e+00
   0.000e+00
   0.000e+00
   0.000e+00
   0.000e+00
   0.000e+00
   0.000e+00
   0.000e+00
   0.000e+00
   0.000e+00
   0.000e+00
   0.000e+00
   0.000e+00
   0.000e+00
   0.000e+00
   0.000e+00
   0.000e+00
   0.000e+00
   0.000e+00
   0.000e+00
   0.000e+00
   0.000e+00
   0.000e+00
   0.000e+00
   0.000e+00
   0.000e+00
   0.000e+00
   0.000e+00
   0.000e+00
   0.000e+00
   0.000e+00
   0.000e+00
   0.000e+00
   0.000e+00
   0.000e+00
   0.000e+00
   0.000e+00
   0.000e+00
   0.000e+00
   0.000e+00
   0.000e+00
   0.000e+00
   0.000e+00
   0.000e+00
   0.000e+00
   0.000e+00
   0.000e+00
   0.000e+00
   0.000e+00
   0.000e+00
   0.000e+00
   0.000e+00
   0.000e+00
   0.000e+00
   0.000e+00
   0.000e+00
   0.000e+00
   0.000e+00
   0.000e+00
   0.000e+00
   0.000e+00
   0.000e+00
   0.000e+00
   0.000e+00
   0.000e+00
   0.000e+00
   0.000e+00
   0.000e+00
   0.000e+00
   0.000e+00
   0.000e+00
   0.000e+00
   0.000e+00
   0.000e+00
   0.000e+00
   0.000e+00
   0.000e+00
   0.000e+00
   0.000e+00
   0.000e+00
   0.000e+00
   0.000e+00
   0.000e+00
   0.000e+00
   0.000e+00
   0.000e+00
   0.000e+00
   0.000e+00
   0.000e+00
   0.000e+00
   0.000e+00
   0.000e+00
   0.000e+00
   0.000e+00
   0.000e+00
   0.000e+00
   0.000e+00
   0.000e+00
   0.000e+00
   0.000e+00
   0.000e+00
   0.000e+00
   0.000e+00
   0.000e+00
   0.000e+00
   0.000e+00
   0.000e+00
   0.000e+00
   0.000e+00
   0.000e+00
   0.000e+00
   0.000e+00
   0.000e+00
   0.000e+00
   0.000e+00
   0.000e+00
   0.000e+00
   0.000e+00
   0.000e+00
   0.000e+00
   0.000e+00
   0.000e+00
   0.000e+00
   0.000e+00
   0.000e+00
   0.000e+00
   0.000e+00
   0.000e+00
   0.000e+00
   0.000e+00
   0.000e+00
   0.000e+00
   0.000e+00
   0.000e+00
   0.000e+00
   0.000e+00
   0.000e+00
   0.000e+00
   0.000e+00
   0.000e+00
   0.000e+00
   0.000e+00
   0.000e+00
   0.000e+00
   0.000e+00
   0.000e+00
   0.000e+00
   0.000e+00
   0.000e+00
   0.000e+00
   0.000e+00
   0.000e+00
   0.000e+00
   0.000e+00
   0.000e+00
   0.000e+00
   0.000e+00
   0.000e+00
   0.000e+00
   0.000e+00
   0.000e+00
   0.000e+00
   0.000e+00
   0.000e+00
   0.000e+00
   0.000e+00
   0.000e+00
   0.000e+00
   0.000e+00
   0.000e+00
   0.000e+00
   0.000e+00
   0.000e+00
   0.000e+00
   0.000e+00
   0.000e+00
   0.000e+00
   0.000e+00
   0.000e+00
   0.000e+00
   0.000e+00
   0.000e+00
   0.000e+00
   0.000e+00
   0.000e+00
   0.000e+00
   0.000e+00
   0.000e+00
   0.000e+00
   0.000e+00
   0.000e+00
   0.000e+00
   0.000e+00
   0.000e+00
   0.000e+00
   0.000e+00
   0.000e+00
   0.000e+00
   0.000e+00
   0.000e+00
   0.000e+00
   0.000e+00
   0.000e+00
   0.000e+00
   0.000e+00
   0.000e+00
   0.000e+00
   0.000e+00
   0.000e+00
   0.000e+00
   0.000e+00
   0.000e+00
   0.000e+00
   0.000e+00
   0.000e+00
   0.000e+00
   0.000e+00
   0.000e+00
   0.000e+00
   0.000e+00
   0.000e+00
   0.000e+00
   0.000e+00
   0.000e+00
   0.000e+00
   0.000e+00
   0.000e+00
   0.000e+00
   0.000e+00
   0.000e+00
   0.000e+00
   0.000e+00
   0.000e+00
   0.000e+00
   0.000e+00
   0.000e+00
   0.000e+00
   0.000e+00
   0.000e+00
   0.000e+00
   0.000e+00
   0.000e+00
   0.000e+00
   0.000e+00
   0.000e+00
   0.000e+00
   0.000e+00
   0.000e+00
   0.000e+00
   0.000e+00
   0.000e+00
   0.000e+00
   0.000e+00
   0.000e+00
   0.000e+00
   0.000e+00
   0.000e+00
   0.000e+00
   0.000e+00
   0.000e+00
   0.000e+00
   0.000e+00
   0.000e+00
   0.000e+00
   0.000e+00
   0.000e+00
   0.000e+00
   0.000e+00
   0.000e+00
   0.000e+00
   0.000e+00
   0.000e+00
   0.000e+00
   0.000e+00
   0.000e+00
   0.000e+00
   0.000e+00
   0.000e+00
   0.000e+00
   0.000e+00
   0.000e+00
   0.000e+00
   0.000e+00
   0.000e+00
   0.000e+00
   0.000e+00
   0.000e+00
   0.000e+00
   0.000e+00
   0.000e+00
   0.000e+00
   0.000e+00
   0.000e+00
   0.000e+00
   0.000e+00
   0.000e+00
   0.000e+00
   0.000e+00
   0.000e+00
   0.000e+00
   0.000e+00
   0.000e+00
   0.000e+00
   0.000e+00
   0.000e+00
   0.000e+00
   0.000e+00
   0.000e+00
   0.000e+00
   0.000e+00
   0.000e+00
   0.000e+00
   0.000e+00
   0.000e+00
   0.000e+00
   0.000e+00
   0.000e+00
   0.000e+00
   0.000e+00
   0.000e+00
   0.000e+00
   0.000e+00
   0.000e+00
   0.000e+00
   0.000e+00
   0.000e+00
   0.000e+00
   0.000e+00
   0.000e+00
   0.000e+00
   0.000e+00
   0.000e+00
   0.000e+00
   0.000e+00
   0.000e+00
   0.000e+00
   0.000e+00
   0.000e+00
   0.000e+00
   0.000e+00
   0.000e+00
   0.000e+00
   0.000e+00
   0.000e+00
   0.000e+00
   0.000e+00
   0.000e+00
   0.000e+00
   0.000e+00
   0.000e+00
   0.000e+00
   0.000e+00
   0.000e+00
   0.000e+00
   0.000e+00
   0.000e+00
   0.000e+00
   0.000e+00
   0.000e+00
   0.000e+00
   0.000e+00
   0.000e+00
   0.000e+00
   0.000e+00
   0.000e+00
   0.000e+00
   0.000e+00
   0.000e+00
   0.000e+00
   0.000e+00
   0.000e+00
   0.000e+00
   0.000e+00
   0.000e+00
   0.000e+00
   0.000e+00
   0.000e+00
   0.000e+00
   0.000e+00
   0.000e+00
   0.000e+00
   0.000e+00
   0.000e+00
   0.000e+00
   0.000e+00
   0.000e+00
   0.000e+00
   0.000e+00
   0.000e+00
   0.000e+00
   0.000e+00
   0.000e+00
   0.000e+00
   0.000e+00
   0.000e+00
   0.000e+00
   0.000e+00
   0.000e+00
   0.000e+00
   0.000e+00
   0.000e+00
   0.000e+00
   0.000e+00
   0.000e+00
   0.000e+00
   0.000e+00
   0.000e+00
   0.000e+00
   0.000e+00
   0.000e+00
   0.000e+00
   0.000e+00
   0.000e+00
   0.000e+00
   0.000e+00
   0.000e+00
   0.000e+00
   0.000e+00
   0.000e+00
   0.000e+00
   0.000e+00
   0.000e+00
   0.000e+00
   0.000e+00
   0.000e+00
   0.000e+00
   0.000e+00
   0.000e+00
   0.000e+00
   0.000e+00
   0.000e+00
   0.000e+00
   0.000e+00
   0.000e+00
   0.000e+00
   0.000e+00
   0.000e+00
   0.000e+00
   0.000e+00
   0.000e+00
   0.000e+00
   0.000e+00
   0.000e+00
   0.000e+00
   0.000e+00
   0.000e+00
   0.000e+00
   0.000e+00
   0.000e+00
   0.000e+00
   0.000e+00
   0.000e+00
   0.000e+00
   0.000e+00
   0.000e+00
   0.000e+00
   0.000e+00
   0.000e+00
   0.000e+00
   0.000e+00
   0.000e+00
   0.000e+00
   0.000e+00
   0.000e+00
   0.000e+00
   0.000e+00
   0.000e+00
   0.000e+00
   0.000e+00
   0.000e+00
   0.000e+00
   0.000e+00
   0.000e+00
   0.000e+00
   0.000e+00
   0.000e+00
   0.000e+00
   0.000e+00
   0.000e+00
   0.000e+00
   0.000e+00
   0.000e+00
   0.000e+00
   0.000e+00
   0.000e+00
   0.000e+00
   0.000e+00
   0.000e+00
   0.000e+00
   0.000e+00
   0.000e+00
   0.000e+00
   0.000e+00
   0.000e+00
   0.000e+00
   0.000e+00
   0.000e+00
   0.000e+00
   0.000e+00
   0.000e+00
   0.000e+00
   0.000e+00
   0.000e+00
   0.000e+00
   0.000e+00
   0.000e+00
   0.000e+00
   0.000e+00
   0.000e+00
   0.000e+00
   0.000e+00
   0.000e+00
   0.000e+00
   0.000e+00
   0.000e+00
   0.000e+00
   0.000e+00
   0.000e+00
   0.000e+00
   0.000e+00
   0.000e+00
   0.000e+00
   0.000e+00
   0.000e+00
   0.000e+00
   0.000e+00
   0.000e+00
   0.000e+00
   0.000e+00
   0.000e+00
   0.000e+00
   0.000e+00
   0.000e+00
   0.000e+00
   0.000e+00
   0.000e+00
   0.000e+00
   0.000e+00
   0.000e+00
   0.000e+00
   0.000e+00
   0.000e+00
   0.000e+00
   0.000e+00
   0.000e+00
   0.000e+00
   0.000e+00
   0.000e+00
   0.000e+00
   0.000e+00
   0.000e+00
   0.000e+00
   0.000e+00
   0.000e+00
   0.000e+00
   0.000e+00
   0.000e+00
   0.000e+00
   0.000e+00
   0.000e+00
   0.000e+00
   0.000e+00
   0.000e+00
   0.000e+00
   0.000e+00
   0.000e+00
   0.000e+00
   0.000e+00
   0.000e+00
   0.000e+00
   0.000e+00
   0.000e+00
   0.000e+00
   0.000e+00
   0.000e+00
   0.000e+00
   0.000e+00
   0.000e+00
   0.000e+00
   0.000e+00
   0.000e+00
   0.000e+00
   0.000e+00
   0.000e+00
   0.000e+00
   0.000e+00
   0.000e+00
   0.000e+00
   0.000e+00
   0.000e+00
   0.000e+00
   0.000e+00
   0.000e+00
   0.000e+00
   0.000e+00
   0.000e+00
   0.000e+00
   0.000e+00
   0.000e+00
   0.000e+00
   0.000e+00
   0.000e+00
   0.000e+00
   0.000e+00
   0.000e+00
   0.000e+00
   0.000e+00
   0.000e+00
   0.000e+00
   0.000e+00
   0.000e+00
   0.000e+00
   0.000e+00
   0.000e+00
   0.000e+00
   0.000e+00
   0.000e+00
   0.000e+00
   0.000e+00
   0.000e+00
   0.000e+00
   0.000e+00
   0.000e+00
   0.000e+00
   0.000e+00
   0.000e+00
   0.000e+00
   0.000e+00
   0.000e+00
   0.000e+00
   0.000e+00
   0.000e+00
   0.000e+00
   0.000e+00
   0.000e+00
   0.000e+00
   0.000e+00
   0.000e+00
   0.000e+00
   0.000e+00
   0.000e+00
   0.000e+00
   0.000e+00
   0.000e+00
   0.000e+00
   0.000e+00
   0.000e+00
   0.000e+00
   0.000e+00
   0.000e+00
   0.000e+00
   0.000e+00
   0.000e+00
   0.000e+00
   0.000e+00
   0.000e+00
   0.000e+00
   0.000e+00
   0.000e+00
   0.000e+00
   0.000e+00
   0.000e+00
   0.000e+00
   0.000e+00
   0.000e+00
   0.000e+00
   0.000e+00
   0.000e+00
   0.000e+00
   0.000e+00
   0.000e+00
   0.000e+00
   0.000e+00
   0.000e+00
   0.000e+00
   0.000e+00
   0.000e+00
   0.000e+00
   0.000e+00
   0.000e+00
   0.000e+00
   0.000e+00
   0.000e+00
   0.000e+00
   0.000e+00
   0.000e+00
   0.000e+00
   0.000e+00
   0.000e+00
   0.000e+00
   0.000e+00
   0.000e+00
   0.000e+00
   0.000e+00
   0.000e+00
   0.000e+00
   0.000e+00
   0.000e+00
   0.000e+00
   0.000e+00
   0.000e+00
   0.000e+00
   0.000e+00
   0.000e+00
   0.000e+00
   0.000e+00
   0.000e+00
   0.000e+00
   0.000e+00
   0.000e+00
   0.000e+00
   0.000e+00
   0.000e+00
   0.000e+00
   0.000e+00
   0.000e+00
   0.000e+00
   0.000e+00
   0.000e+00
   0.000e+00
   0.000e+00
   0.000e+00
   0.000e+00
   0.000e+00
   0.000e+00
   0.000e+00
   0.000e+00
   0.000e+00
   0.000e+00
   0.000e+00
   0.000e+00
   0.000e+00
   0.000e+00
   0.000e+00
   0.000e+00
   0.000e+00
   0.000e+00
   0.000e+00
   0.000e+00
   0.000e+00
   0.000e+00
   0.000e+00
   0.000e+00
   0.000e+00
   0.000e+00
   0.000e+00
   0.000e+00
   0.000e+00
   0.000e+00
   0.000e+00
   0.000e+00
   0.000e+00
   0.000e+00
   0.000e+00
   0.000e+00
   0.000e+00
   0.000e+00
   0.000e+00
   0.000e+00
   0.000e+00
   0.000e+00
   0.000e+00
   0.000e+00
   0.000e+00
   0.000e+00
   0.000e+00
   0.000e+00
   0.000e+00
   0.000e+00
   0.000e+00
   0.000e+00
   0.000e+00
   0.000e+00
   0.000e+00
   0.000e+00
   0.000e+00
   0.000e+00
   0.000e+00
   0.000e+00
   0.000e+00
   0.000e+00
   0.000e+00
   0.000e+00
   0.000e+00
   0.000e+00
   0.000e+00
   0.000e+00
   0.000e+00
   0.000e+00
   0.000e+00
   0.000e+00
   0.000e+00
   0.000e+00
   0.000e+00
   0.000e+00
   0.000e+00
   0.000e+00
   0.000e+00

VECTORS gradient float
  -5.127e-01  -5.127e-01   0.000e+00
  -5.120e-01  -5.393e-01   0.000e+00
  -5.098e-01  -5.670e-01   0.000e+00
  -5.059e-01  -5.961e-01   0.000e+00
  -5.001e-01  -6.263e-01   0.000e+00
  -4.922e-01  -6.576e-01   0.000e+00
  -4.817e-01  -6.898e-01   0.000e+00
  -4.685e-01  -7.228e-01   0.000e+00
  -4.524e-01  -7.563e-01   0.000e+00
  -4.330e-01  -7.899e-01   0.000e+00
  -4.102e-01  -8.233e-01   0.000e+00
  -3.838e-01  -8.561e-01   0.000e+00
  -3.536e-01  -8.876e-01   0.000e+00
  -3.198e-01  -9.175e-01   0.000e+00
  -2.823e-01  -9.450e-01   0.000e+00
  -2.413e-01  -9.696e-01   0.000e+00
  -1.972e-01  -9.907e-01   0.000e+00
  -1.505e-01  -1.008e+00   0.000e+00
  -1.015e-01  -1.020e+00   0.000e+00
  -5.115e-02  -1.028e+00   0.000e+00
  -3.553e-15  -1.030e+00   0.000e+00
   5.115e-02  -1.028e+00   0.000e+00
   1.015e-01  -1.020e+00   0.000e+00
   1.505e-01  -1.008e+00   0.000e+00
   1.972e-01  -9.907e-01   0.000e+00
   2.413e-01  -9.696e-01   0.000e+00
   2.823e-01  -9.450e-01   0.000e+00
   3.198e-01  -9.175e-01   0.000e+00
   3.536e-01  -8.876e-01   0.000e+00
   3.838e-01  -8.561e-01   0.000e+00
   4.102e-01  -8.233e-01   0.000e+00
   4.330e-01  -7.899e-01   0.000e+00
   4.524e-01  -7.563e-01   0.000e+00
   4.685e-01  -7.228e-01   0.000e+00
   4.817e-01  -6.898e-01   0.000e+00
   4.922e-01  -6.576e-01   0.000e+00
   5.001e-01  -6.263e-01   0.000e+00
   5.059e-01  -5.961e-01   0.000e+00
   5.098e-01  -5.670e-01   0.000e+00
   5.120e-01  -5.393e-01   0.000e+00
   5.127e-01  -5.127e-01   0.000e+00
  -5.393e-01  -5.120e-01   0.000e+00
  -5.397e-01  -5.397e-01   0.000e+00
  -5.389e-01  -5.688e-01   0.000e+00
  -5.364e-01  -5.994e-01   0.000e+00
  -5.319e-01  -6.314e-01   0.000e+00
  -5.250e-01  -6.647e-01   0.000e+00
  -5.156e-01  -6.992e-01   0.000e+00
  -5.032e-01  -7.347e-01   0.000e+00
  -4.875e-01  -7.709e-01   0.000e+00
  -4.682e-01  -8.075e-01   0.000e+00
  -4.450e-01  -8.441e-01   0.000e+00
  -4.178e-01  -8.802e-01   0.000e+00
  -3.862e-01  -9.152e-01   0.000e+00
  -3.503e-01  -9.485e-01   0.000e+00
  -3.101e-01  -9.793e-01   0.000e+00
  -2.658e-01  -1.007e+00   0.000e+00
  -2.177e-01  -1.031e+00   0.000e+00
  -1.664e-01  -1.050e+00   0.000e+00
  -1.124e-01  -1.064e+00   0.000e+00
  -5.668e-02  -1.073e+00   0.000e+00
   7.105e-15  -1.076e+00   0.000e+00
   5.668e-02  -1.073e+00   0.000e+00
   1.124e-01  -1.064e+00   0.000e+00
   1.664e-01  -1.050e+00   0.000e+00
   2.177e-01  -1.031e+00   0.000e+00
   2.658e-01  -1.007e+00   0.000e+00
   3.101e-01  -9.793e-01   0.000e+00
   3.503e-01  -9.485e-01   0.000e+00
   3.862e-01  -9.152e-01   0.000e+00
   4.178e-01  -8.802e-01   0.000e+00
   4.450e-01  -8.441e-01   0.000e+00
   4.682e-01  -8.075e-01   0.000e+00
   4.875e-01  -7.709e-01   0.000e+00
   5.032e-01  -7.347e-01   0.000e+00
   5.156e-01  -6.992e-01   0.000e+00
   5.250e-01  -6.647e-01   0.000e+00
   5.319e-01  -6.314e-01   0.000e+00
   5.364e-01  -5.994e-01   0.000e+00
   5.389e-01  -5.688e-01   0.000e+00
   5.397e-01  -5.397e-01   0.000e+00
   5.393e-01  -5.120e-01   0.000e+00
  -5.670e-01  -5.098e-01   0.000e+00
  -5.688e-01  -5.389e-01   0.000e+00
  -5.696e-01  -5.696e-01   0.000e+00
  -5.687e-01  -6.021e-01   0.000e+00
  -5.657e-01  -6.363e-01   0.000e+00
  -5.603e-01  -6.721e-01   0.000e+00
  -5.522e-01  -7.095e-01   0.000e+00
  -5.408e-01  -7.483e-01   0.000e+00
  -5.259e-01  -7.881e-01   0.000e+00
  -5.070e-01  -8.287e-01   0.000e+00
  -4.837e-01  -8.695e-01   0.000e+00
  -4.558e-01  -9.101e-01   0.000e+00
  -4.229e-01  -9.498e-01   0.000e+00
  -3.849e-01  -9.878e-01   0.000e+00
  -3.418e-01  -1.023e+00   0.000e+00
  -2.938e-01  -1.055e+00   0.000e+00
  -2.412e-01  -1.083e+00   0.000e+00
  -1.847e-01  -1.106e+00   0.000e+00
  -1.250e-01  -1.122e+00   0.000e+00
  -6.309e-02  -1.133e+00   0.000e+00
   1.776e-15  -1.136e+00   0.000e+00
   6.309e-02  -1.133e+00   0.000e+00
   1.250e-01  -1.122e+00   0.000e+00
   1.847e-01  -1.106e+00   0.000e+00
   2.412e-01  -1.083e+00   0.000e+00
   2.938e-01  -1.055e+00   0.000e+00
   3.418e-01  -1.023e+00   0.000e+00
   3.849e-01  -9.878e-01   0.000e+00
   4.229e-01  -9.498e-01   0.000e+00
   4.558e-01  -9.101e-01   0.000e+00
   4.837e-01  -8.695e-01   0.000e+00
   5.070e-01  -8.287e-01   0.000e+00
   5.259e-01  -7.881e-01   0.000e+00
   5.408e-01  -7.483e-01   0.000e+00
   5.522e-01  -7.095e-01   0.000e+00
   5.603e-01  -6.721e-01   0.000e+00
   5.657e-01  -6.363e-01   0.000e+00
   5.687e-01  -6.021e-01   0.000e+00
   5.696e-01  -5.696e-01   0.000e+00
   5.688e-01  -5.389e-01   0.000e+00
   5.670e-01  -5.098e-01   0.000e+00
  -5.961e-01  -5.059e-01   0.000e+00
  -5.994e-01  -5.364e-01   0.000e+00
  -6.021e-01  -5.687e-01   0.000e+00
  -6.031e-01  -6.031e-01   0.000e+00
  -6.020e-01  -6.395e-01   0.000e+00
  -5.984e-01  -6.780e-01   0.000e+00
  -5.919e-01  -7.185e-01   0.000e+00
  -5.820e-01  -7.607e-01   0.000e+00
  -5.683e-01  -8.045e-01   0.000e+00
  -5.501e-01  -8.495e-01   0.000e+00
  -5.271e-01  -8.951e-01   0.000e+00
  -4.987e-01  -9.409e-01   0.000e+00
  -4.646e-01  -9.860e-01   0.000e+00
  -4.246e-01  -1.030e+00   0.000e+00
  -3.785e-01  -1.071e+00   0.000e+00
  -3.264e-01  -1.108e+00   0.000e+00
  -2.688e-01  -1.140e+00   0.000e+00
  -2.064e-01  -1.167e+00   0.000e+00
  -1.399e-01  -1.187e+00   0.000e+00
  -7.068e-02  -1.199e+00   0.000e+00
   1.776e-15  -1.203e+00   0.000e+00
   7.068e-02  -1.199e+00   0.000e+00
   1.399e-01  -1.187e+00   0.000e+00
   2.064e-01  -1.167e+00   0.000e+00
   2.688e-01  -1.140e+00   0.000e+00
   3.264e-01  -1.108e+00   0.000e+00
   3.785e-01  -1.071e+00   0.000e+00
   4.246e-01  -1.030e+00   0.000e+00
   4.646e-01  -9.860e-01   0.000e+00
   4.987e-01  -9.409e-01   0.000e+00
   5.271e-01  -8.951e-01   0.000e+00
   5.501e-01  -8.495e-01   0.000e+00
   5.683e-01  -8.045e-01   0.000e+00
   5.820e-01  -7.607e-01   0.000e+00
   5.919e-01  -7.185e-01   0.000e+00
   5.984e-01  -6.780e-01   0.000e+00
   6.020e-01  -6.395e-01   0.000e+00
   6.031e-01  -6.031e-01   0.000e+00
   6.021e-01  -5.687e-01   0.000e+00
   5.994e-01  -5.364e-01   0.000e+00
   5.961e-01  -5.059e-01   0.000e+00
  -6.263e-01  -5.001e-01   0.000e+00
  -6.314e-01  -5.319e-01   0.000e+00
  -6.363e-01  -5.657e-01   0.000e+00
  -6.395e-01  -6.020e-01   0.000e+00
  -6.407e-01  -6.407e-01   0.000e+00
  -6.394e-01  -6.819e-01   0.000e+00
  -6.350e-01  -7.256e-01   0.000e+00
  -6.271e-01  -7.715e-01   0.000e+00
  -6.151e-01  -8.196e-01   0.000e+00
  -5.982e-01  -8.695e-01   0.000e+00
  -5.759e-01  -9.206e-01   0.000e+00
  -5.475e-01  -9.724e-01   0.000e+00
  -5.125e-01  -1.024e+00   0.000e+00
  -4.704e-01  -1.074e+00   0.000e+00
  -4.212e-01  -1.122e+00   0.000e+00
  -3.647e-01  -1.165e+00   0.000e+00
  -3.014e-01  -1.204e+00   0.000e+00
  -2.320e-01  -1.235e+00   0.000e+00
  -1.577e-01  -1.259e+00   0.000e+00
  -7.975e-02  -1.273e+00   0.000e+00
   1.776e-15  -1.278e+00   0.000e+00
   7.975e-02  -1.273e+00   0.000e+00
   1.577e-01  -1.259e+00   0.000e+00
   2.320e-01  -1.235e+00   0.000e+00
   3.014e-01  -1.204e+00   0.000e+00
   3.647e-01  -1.165e+00   0.000e+00
   4.212e-01  -1.122e+00   0.000e+00
   4.704e-01  -1.074e+00   0.000e+00
   5.125e-01  -1.024e+00   0.000e+00
   5.475e-01  -9.724e-01   0.000e+00
   5.759e-01  -9.206e-01   0.000e+00
   5.982e-01  -8.695e-01   0.000e+00
   6.151e-01  -8.196e-01   0.000e+00
   6.271e-01  -7.715e-01   0.000e+00
   6.350e-01  -7.256e-01   0.000e+00
   6.394e-01  -6.819e-01   0.000e+00
   6.407e-01  -6.407e-01   0.000e+00
   6.395e-01  -6.020e-01   0.000e+00
   6.363e-01  -5.657e-01   0.000e+00
   6.314e-01  -5.319e-01   0.000e+00
   6.263e-01  -5.001e-01   0.000e+00
  -6.576e-01  -4.922e-01   0.000e+00
  -6.647e-01  -5.250e-01   0.000e+00
  -6.721e-01  -5.603e-01   0.000e+00
  -6.780e-01  -5.984e-01   0.000e+00
  -6.819e-01  -6.394e-01   0.000e+00
  -6.833e-01  -6.833e-01   0.000e+00
  -6.817e-01  -7.303e-01   0.000e+00
  -6.764e-01  -7.802e-01   0.000e+00
  -6.666e-01  -8.330e-01   0.000e+00
  -6.517e-01  -8.882e-01   0.000e+00
  -6.307e-01  -9.455e-01   0.000e+00
  -6.029e-01  -1.004e+00   0.000e+00
  -5.674e-01  -1.063e+00   0.000e+00
  -5.236e-01  -1.121e+00   0.000e+00
  -4.712e-01  -1.176e+00   0.000e+00
  -4.099e-01  -1.228e+00   0.000e+00
  -3.402e-01  -1.274e+00   0.000e+00
  -2.628e-01  -1.312e+00   0.000e+00
  -1.790e-01  -1.340e+00   0.000e+00
  -9.071e-02  -1.358e+00   0.000e+00
   1.776e-15  -1.364e+00   0.000e+00
   9.071e-02  -1.358e+00   0.000e+00
   1.790e-01  -1.340e+00   0.000e+00
   2.628e-01  -1.312e+00   0.000e+00
   3.402e-01  -1.274e+00   0.000e+00
   4.099e-01  -1.228e+00   0.000e+00
   4.712e-01  -1.176e+00   0.000e+00
   5.236e-01  -1.121e+00   0.000e+00
   5.674e-01  -1.063e+00   0.000e+00
   6.029e-01  -1.004e+00   0.000e+00
   6.307e-01  -9.455e-01   0.000e+00
   6.517e-01  -8.882e-01   0.000e+00
   6.666e-01  -8.330e-01   0.000e+00
   6.764e-01  -7.802e-01   0.000e+00
   6.817e-01  -7.303e-01   0.000e+00
   6.833e-01  -6.833e-01   0.000e+00
   6.819e-01  -6.394e-01   0.000e+00
   6.780e-01  -5.984e-01   0.000e+00
   6.721e-01  -5.603e-01   0.000e+00
   6.647e-01  -5.250e-01   0.000e+00
   6.576e-01  -4.922e-01   0.000e+00
  -6.898e-01  -4.817e-01   0.000e+00
  -6.992e-01  -5.156e-01   0.000e+00
  -7.095e-01  -5.522e-01   0.000e+00
  -7.185e-01  -5.919e-01   0.000e+00
  -7.256e-01  -6.350e-01   0.000e+00
  -7.303e-01  -6.817e-01   0.000e+00
  -7.320e-01  -7.320e-01   0.000e+00
  -7.300e-01  -7.861e-01   0.000e+00
  -7.234e-01  -8.438e-01   0.000e+00
  -7.112e-01  -9.049e-01   0.000e+00
  -6.924e-01  -9.689e-01   0.000e+00
  -6.659e-01  -1.035e+00   0.000e+00
  -6.306e-01  -1.103e+00   0.000e+00
  -5.856e-01  -1.170e+00   0.000e+00
  -5.301e-01  -1.235e+00   0.000e+00
  -4.638e-01  -1.297e+00   0.000e+00
  -3.868e-01  -1.351e+00   0.000e+00
  -3.001e-01  -1.397e+00   0.000e+00
  -2.051e-01  -1.432e+00   0.000e+00
  -1.041e-01  -1.454e+00   0.000e+00
   1.776e-15  -1.461e+00   0.000e+00
   1.041e-01  -1.454e+00   0.000e+00
   2.051e-01  -1.432e+00   0.000e+00
   3.001e-01  -1.397e+00   0.000e+00
   3.868e-01  -1.351e+00   0.000e+00
   4.638e-01  -1.297e+00   0.000e+00
   5.301e-01  -1.235e+00   0.000e+00
   5.856e-01  -1.170e+00   0.000e+00
   6.306e-01  -1.103e+00   0.000e+00
   6.659e-01  -1.035e+00   0.000e+00
   6.924e-01  -9.689e-01   0.000e+00
   7.112e-01  -9.049e-01   0.000e+00
   7.234e-01  -8.438e-01   0.000e+00
   7.300e-01  -7.861e-01   0.000e+00
   7.320e-01  -7.320e-01   0.000e+00
   7.303e-01  -6.817e-01   0.000e+00
   7.256e-01  -6.350e-01   0.000e+00
   7.185e-01  -5.919e-01   0.000e+00
   7.095e-01  -5.522e-01   0.000e+00
   6.992e-01  -5.156e-01   0.000e+00
   6.898e-01  -4.817e-01   0.000e+00
  -7.228e-01  -4.685e-01   0.000e+00
  -7.347e-01  -5.032e-01   0.000e+00
  -7.483e-01  -5.408e-01   0.000e+00
  -7.607e-01  -5.820e-01   0.000e+00
  -7.715e-01  -6.271e-01   0.000e+00
  -7.802e-01  -6.764e-01   0.000e+00
  -7.861e-01  -7.300e-01   0.000e+00
  -7.883e-01  -7.883e-01   0.000e+00
  -7.857e-01  -8.511e-01   0.000e+00
  -7.774e-01  -9.185e-01   0.000e+00
  -7.619e-01  -9.900e-01   0.000e+00
  -7.378e-01  -1.065e+00   0.000e+00
  -7.037e-01  -1.143e+00   0.000e+00
  -6.582e-01  -1.221e+00   0.000e+00
  -6.001e-01  -1.298e+00   0.000e+00
  -5.285e-01  -1.372e+00   0.000e+00
  -4.435e-01  -1.438e+00   0.000e+00
  -3.459e-01  -1.495e+00   0.000e+00
  -2.373e-01  -1.538e+00   0.000e+00
  -1.208e-01  -1.565e+00   0.000e+00
   1.776e-15  -1.574e+00   0.000e+00
   1.208e-01  -1.565e+00   0.000e+00
   2.373e-01  -1.538e+00   0.000e+00
   3.459e-01  -1.495e+00   0.000e+00
   4.435e-01  -1.438e+00   0.000e+00
   5.285e-01  -1.372e+00   0.000e+00
   6.001e-01  -1.298e+00   0.000e+00
   6.582e-01  -1.221e+00   0.000e+00
   7.037e-01  -1.143e+00   0.000e+00
   7.378e-01  -1.065e+00   0.000e+00
   7.619e-01  -9.900e-01   0.000e+00
   7.774e-01  -9.185e-01   0.000e+00
   7.857e-01  -8.511e-01   0.000e+00
   7.883e-01  -7.883e-01   0.000e+00
   7.861e-01  -7.300e-01   0.000e+00
   7.802e-01  -6.764e-01   0.000e+00
   7.715e-01  -6.271e-01   0.000e+00
   7.607e-01  -5.820e-01   0.000e+00
   7.483e-01  -5.408e-01   0.000e+00
   7.347e-01  -5.032e-01   0.000e+00
   7.228e-01  -4.685e-01   0.000e+00
  -7.563e-01  -4.524e-01   0.000e+00
  -7.709e-01  -4.875e-01   0.000e+00
  -7.881e-01  -5.259e-01   0.000e+00
  -8.045e-01  -5.683e-01   0.000e+00
  -8.196e-01  -6.151e-01   0.000e+00
  -8.330e-01  -6.666e-01   0.000e+00
  -8.438e-01  -7.234e-01   0.000e+00
  -8.511e-01  -7.857e-01   0.000e+00
  -8.538e-01  -8.538e-01   0.000e+00
  -8.506e-01  -9.278e-01   0.000e+00
  -8.399e-01  -1.008e+00   0.000e+00
  -8.197e-01  -1.092e+00   0.000e+00
  -7.883e-01  -1.181e+00   0.000e+00
  -7.436e-01  -1.273e+00   0.000e+00
  -6.836e-01  -1.365e+00   0.000e+00
  -6.070e-01  -1.453e+00   0.000e+00
  -5.133e-01  -1.535e+00   0.000e+00
  -4.029e-01  -1.605e+00   0.000e+00
  -2.780e-01  -1.660e+00   0.000e+00
  -1.419e-01  -1.694e+00   0.000e+00
  -1.776e-15  -1.706e+00   0.000e+00
   1.419e-01  -1.694e+00   0.000e+00
   2.780e-01  -1.660e+00   0.000e+00
   4.029e-01  -1.605e+00   0.000e+00
   5.133e-01  -1.535e+00   0.000e+00
   6.070e-01  -1.453e+00   0.000e+00
   6.836e-01  -1.365e+00   0.000e+00
   7.436e-01  -1.273e+00   0.000e+00
   7.883e-01  -1.181e+00   0.000e+00
   8.197e-01  -1.092e+00   0.000e+00
   8.399e-01  -1.008e+00   0.000e+00
   8.506e-01  -9.278e-01   0.000e+00
   8.538e-01  -8.538e-01   0.000e+00
   8.511e-01  -7.857e-01   0.000e+00
   8.438e-01  -7.234e-01   0.000e+00
   8.330e-01  -6.666e-01   0.000e+00
   8.196e-01  -6.151e-01   0.000e+00
   8.045e-01  -5.683e-01   0.000e+00
   7.881e-01  -5.259e-01   0.000e+00
   7.709e-01  -4.875e-01   0.000e+00
   7.563e-01  -4.524e-01   0.000e+00
  -7.899e-01  -4.330e-01   0.000e+00
  -8.075e-01  -4.682e-01   0.000e+00
  -8.287e-01  -5.070e-01   0.000e+00
  -8.495e-01  -5.501e-01   0.000e+00
  -8.695e-01  -5.982e-01   0.000e+00
  -8.882e-01  -6.517e-01   0.000e+00
  -9.049e-01  -7.112e-01   0.000e+00
  -9.185e-01  -7.774e-01   0.000e+00
  -9.278e-01  -8.506e-01   0.000e+00
  -9.313e-01  -9.313e-01   0.000e+00
  -9.271e-01  -1.020e+00   0.000e+00
  -9.130e-01  -1.115e+00   0.000e+00
  -8.862e-01  -1.217e+00   0.000e+00
  -8.441e-01  -1.324e+00   0.000e+00
  -7.842e-01  -1.434e+00   0.000e+00
  -7.033e-01  -1.542e+00   0.000e+00
  -5.995e-01  -1.643e+00   0.000e+00
  -4.758e-01  -1.732e+00   0.000e+00
  -3.295e-01  -1.802e+00   0.000e+00
  -1.696e-01  -1.847e+00   0.000e+00
  -5.329e-15  -1.862e+00   0.000e+00
   1.696e-01  -1.847e+00   0.000e+00
   3.295e-01  -1.802e+00   0.000e+00
   4.758e-01  -1.732e+00   0.000e+00
   5.995e-01  -1.643e+00   0.000e+00
   7.033e-01  -1.542e+00   0.000e+00
   7.842e-01  -1.434e+00   0.000e+00
   8.441e-01  -1.324e+00   0.000e+00
   8.862e-01  -1.217e+00   0.000e+00
   9.130e-01  -1.115e+00   0.000e+00
   9.271e-01  -1.020e+00   0.000e+00
   9.313e-01  -9.313e-01   0.000e+00
   9.278e-01  -8.506e-01   0.000e+00
   9.185e-01  -7.774e-01   0.000e+00
   9.049e-01  -7.112e-01   0.000e+00
   8.882e-01  -6.517e-01   0.000e+00
   8.695e-01  -5.982e-01   0.000e+00
   8.495e-01  -5.501e-01   0.000e+00
   8.287e-01  -5.070e-01   0.000e+00
   8.075e-01  -4.682e-01   0.000e+00
   7.899e-01  -4.330e-01   0.000e+00
  -8.233e-01  -4.102e-01   0.000e+00
  -8.441e-01  -4.450e-01   0.000e+00
  -8.695e-01  -4.837e-01   0.000e+00
  -8.951e-01  -5.271e-01   0.000e+00
  -9.206e-01  -5.759e-01   0.000e+00
  -9.455e-01  -6.307e-01   0.000e+00
  -9.689e-01  -6.924e-01   0.000e+00
  -9.900e-01  -7.619e-01   0.000e+00
  -1.008e+00  -8.399e-01   0.000e+00
  -1.020e+00  -9.271e-01   0.000e+00
  -1.024e+00  -1.024e+00   0.000e+00
  -1.019e+00  -1.131e+00   0.000e+00
  -9.995e-01  -1.248e+00   0.000e+00
  -9.633e-01  -1.374e+00   0.000e+00
  -9.040e-01  -1.503e+00   0.000e+00
  -8.249e-01  -1.636e+00   0.000e+00
  -5.702e-02  -1.287e-02   0.000e+00
  -7.094e-01  -1.767e+00   0.000e+00
   9.531e-03   2.639e-02   0.000e+00
  -5.455e-01  -1.857e+00   0.000e+00
   2.667e-03   6.704e-03   0.000e+00
  -3.861e-01  -1.913e+00   0.000e+00
   2.591e-03   3.188e-03   0.000e+00
  -2.002e-01  -1.956e+00   0.000e+00
  -8.882e-15   1.331e-03   0.000e+00
  -1.776e-15  -1.971e+00   0.000e+00
  -2.591e-03   3.188e-03   0.000e+00
   2.002e-01  -1.956e+00   0.000e+00
  -2.667e-03   6.704e-03   0.000e+00
   3.861e-01  -1.913e+00   0.000e+00
  -9.531e-03   2.639e-02   0.000e+00
   5.455e-01  -1.857e+00   0.000e+00
   5.702e-02  -1.287e-02   0.000e+00
   7.094e-01  -1.767e+00   0.000e+00
   8.249e-01  -1.636e+00   0.000e+00
   9.040e-01  -1.503e+00   0.000e+00
   9.633e-01  -1.374e+00   0.000e+00
   9.995e-01  -1.248e+00   0.000e+00
   1.019e+00  -1.131e+00   0.000e+00
   1.024e+00  -1.024e+00   0.000e+00
   1.020e+00  -9.271e-01   0.000e+00
   1.008e+00  -8.399e-01   0.000e+00
   9.900e-01  -7.619e-01   0.000e+00
   9.689e-01  -6.924e-01   0.000e+00
   9.455e-01  -6.307e-01   0.000e+00
   9.206e-01  -5.759e-01   0.000e+00
   8.951e-01  -5.271e-01   0.000e+00
   8.695e-01  -4.837e-01   0.000e+00
   8.441e-01  -4.450e-01   0.000e+00
   8.233e-01  -4.102e-01   0.000e+00
  -8.561e-01  -3.838e-01   0.000e+00
  -8.802e-01  -4.178e-01   0.000e+00
  -9.101e-01  -4.558e-01   0.000e+00
  -9.409e-01  -4.987e-01   0.000e+00
  -9.724e-01  -5.475e-01   0.000e+00
  -1.004e+00  -6.029e-01   0.000e+00
  -1.035e+00  -6.659e-01   0.000e+00
  -1.065e+00  -7.378e-01   0.000e+00
  -1.092e+00  -8.197e-01   0.000e+00
  -1.115e+00  -9.130e-01   0.000e+00
  -1.131e+00  -1.019e+00   0.000e+00
  -1.138e+00  -1.138e+00   0.000e+00
  -1.130e+00  -1.270e+00   0.000e+00
  -1.103e+00  -1.415e+00   0.000e+00
  -2.324e-01  -1.987e-01   0.000e+00
  -1.055e+00  -1.576e+00   0.000e+00
   1.767e-02   1.929e-02   0.000e+00
  -9.434e-01  -1.713e+00   0.000e+00
   1.601e-03  -5.974e-03   0.000e+00
  -8.579e-01  -1.849e+00   0.000e+00
  -4.699e-03  -8.425e-04   0.000e+00
  -1.312e-05   1.929e-03   0.000e+00
   3.769e-04   5.504e-04   0.000e+00
  -5.329e-15   1.935e-04   0.000e+00
  -3.769e-04   5.504e-04   0.000e+00
   1.312e-05   1.929e-03   0.000e+00
   4.699e-03  -8.425e-04   0.000e+00
  -1.601e-03  -5.974e-03   0.000e+00
   8.579e-01  -1.849e+00   0.000e+00
  -1.767e-02   1.929e-02   0.000e+00
   9.434e-01  -1.713e+00   0.000e+00
   2.324e-01  -1.987e-01   0.000e+00
   1.055e+00  -1.576e+00   0.000e+00
   1.103e+00  -1.415e+00   0.000e+00
   1.130e+00  -1.270e+00   0.000e+00
   1.138e+00  -1.138e+00   0.000e+00
   1.131e+00  -1.019e+00   0.000e+00
   1.115e+00  -9.130e-01   0.000e+00
   1.092e+00  -8.197e-01   0.000e+00
   1.065e+00  -7.378e-01   0.000e+00
   1.035e+00  -6.659e-01   0.000e+00
   1.004e+00  -6.029e-01   0.000e+00
   9.724e-01  -5.475e-01   0.000e+00
   9.409e-01  -4.987e-01   0.000e+00
   9.101e-01  -4.558e-01   0.000e+00
   8.802e-01  -4.178e-01   0.000e+00
   8.561e-01  -3.838e-01   0.000e+00
  -8.876e-01  -3.536e-01   0.000e+00
  -9.152e-01  -3.862e-01   0.000e+00
  -9.498e-01  -4.229e-01   0.000e+00
  -9.860e-01  -4.646e-01   0.000e+00
  -1.024e+00  -5.125e-01   0.000e+00
  -1.063e+00  -5.674e-01   0.000e+00
  -1.103e+00  -6.306e-01   0.000e+00
  -1.143e+00  -7.037e-01   0.000e+00
  -1.181e+00  -7.883e-01   0.000e+00
  -1.217e+00  -8.862e-01   0.000e+00
  -1.248e+00  -9.995e-01   0.000e+00
  -1.270e+00  -1.130e+00   0.000e+00
  -1.279e+00  -1.279e+00   0.000e+00
   5.959e-03   1.418e-02   0.000e+00
  -1.267e+00  -1.448e+00   0.000e+00
   5.277e-03   1.447e-05   0.000e+00
  -1.203e+00  -1.599e+00   0.000e+00
  -4.053e-03  -1.982e-03   0.000e+00
   1.040e-03   9.997e-04   0.000e+00
  -5.005e-04  -4.949e-04   0.000e+00
  -6.893e-04   2.554e-04   0.000e+00
  -9.226e-05   4.888e-04   0.000e+00
   0.000e+00   3.766e-04   0.000e+00
   9.226e-05   4.888e-04   0.000e+00
   6.893e-04   2.554e-04   0.000e+00
   5.005e-04  -4.949e-04   0.000e+00
  -1.040e-03   9.997e-04   0.000e+00
   4.053e-03  -1.982e-03   0.000e+00
  -5.277e-03   1.447e-05   0.000e+00
   1.203e+00  -1.599e+00   0.000e+00
  -5.959e-03   1.418e-02   0.000e+00
   1.267e+00  -1.448e+00   0.000e+00
   1.279e+00  -1.279e+00   0.000e+00
   1.270e+00  -1.130e+00   0.000e+00
   1.248e+00  -9.995e-01   0.000e+00
   1.217e+00  -8.862e-01   0.000e+00
   1.181e+00  -7.883e-01   0.000e+00
   1.143e+00  -7.037e-01   0.000e+00
   1.103e+00  -6.306e-01   0.000e+00
   1.063e+00  -5.674e-01   0.000e+00
   1.024e+00  -5.125e-01   0.000e+00
   9.860e-01  -4.646e-01   0.000e+00
   9.498e-01  -4.229e-01   0.000e+00
   9.152e-01  -3.862e-01   0.000e+00
   8.876e-01  -3.536e-01   0.000e+00
  -9.175e-01  -3.198e-01   0.000e+00
  -9.485e-01  -3.503e-01   0.000e+00
  -9.878e-01  -3.849e-01   0.000e+00
  -1.030e+00  -4.246e-01   0.000e+00
  -1.074e+00  -4.704e-01   0.000e+00
  -1.121e+00  -5.236e-01   0.000e+00
  -1.170e+00  -5.856e-01   0.000e+00
  -1.221e+00  -6.582e-01   0.000e+00
  -1.273e+00  -7.436e-01   0.000e+00
  -1.324e+00  -8.441e-01   0.000e+00
  -1.374e+00  -9.633e-01   0.000e+00
  -1.415e+00  -1.103e+00   0.000e+00
   1.418e-02   5.952e-03   0.000e+00
  -1.448e+00  -1.267e+00   0.000e+00
  -1.069e-03  -1.069e-03   0.000e+00
  -1.444e+00  -1.444e+00   0.000e+00
  -9.022e-04  -1.107e-04   0.000e+00
   2.580e-04   1.782e-05   0.000e+00
  -5.015e-04  -1.944e-04   0.000e+00
  -1.742e-04   8.509e-05   0.000e+00
  -2.546e-04   9.576e-05   0.000e+00
  -1.580e-04   2.314e-04   0.000e+00
   3.553e-15   2.779e-04   0.000e+00
   1.580e-04   2.314e-04   0.000e+00
   2.546e-04   9.576e-05   0.000e+00
   1.742e-04   8.509e-05   0.000e+00
   5.015e-04  -1.944e-04   0.000e+00
  -2.580e-04   1.782e-05   0.000e+00
   9.022e-04  -1.107e-04   0.000e+00
   1.069e-03  -1.069e-03   0.000e+00
   1.444e+00  -1.444e+00   0.000e+00
  -1.418e-02   5.952e-03   0.000e+00
   1.448e+00  -1.267e+00   0.000e+00
   1.415e+00  -1.103e+00   0.000e+00
   1.374e+00  -9.633e-01   0.000e+00
   1.324e+00  -8.441e-01   0.000e+00
   1.273e+00  -7.436e-01   0.000e+00
   1.221e+00  -6.582e-01   0.000e+00
   1.170e+00  -5.856e-01   0.000e+00
   1.121e+00  -5.236e-01   0.000e+00
   1.074e+00  -4.704e-01   0.000e+00
   1.030e+00  -4.246e-01   0.000e+00
   9.878e-01  -3.849e-01   0.000e+00
   9.485e-01  -3.503e-01   0.000e+00
   9.175e-01  -3.198e-01   0.000e+00
  -9.450e-01  -2.823e-01   0.000e+00
  -9.793e-01  -3.101e-01   0.000e+00
  -1.023e+00  -3.418e-01   0.000e+00
  -1.071e+00  -3.785e-01   0.000e+00
  -1.122e+00  -4.212e-01   0.000e+00
  -1.176e+00  -4.712e-01   0.000e+00
  -1.235e+00  -5.301e-01   0.000e+00
  -1.298e+00  -6.001e-01   0.000e+00
  -1.365e+00  -6.836e-01   0.000e+00
  -1.434e+00  -7.842e-01   0.000e+00
  -1.503e+00  -9.040e-01   0.000e+00
  -1.988e-01  -2.325e-01   0.000e+00
  -1.576e+00  -1.055e+00   0.000e+00
   1.664e-05   5.280e-03   0.000e+00
  -1.599e+00  -1.203e+00   0.000e+00
  -1.105e-04  -9.026e-04   0.000e+00
  -2.013e-04  -2.014e-04   0.000e+00
  -2.351e-04  -1.220e-04   0.000e+00
  -1.525e-04  -5.384e-05   0.000e+00
  -1.948e-04  -4.846e-06   0.000e+00
  -1.406e-04   7.794e-05   0.000e+00
  -8.699e-05   1.273e-04   0.000e+00
   1.776e-15   1.518e-04   0.000e+00
   8.699e-05   1.273e-04   0.000e+00
   1.406e-04   7.794e-05   0.000e+00
   1.948e-04  -4.846e-06   0.000e+00
   1.525e-04  -5.384e-05   0.000e+00
   2.351e-04  -1.220e-04   0.000e+00
   2.013e-04  -2.014e-04   0.000e+00
   1.105e-04  -9.026e-04   0.000e+00
  -1.664e-05   5.280e-03   0.000e+00
   1.599e+00  -1.203e+00   0.000e+00
   1.988e-01  -2.325e-01   0.000e+00
   1.576e+00  -1.055e+00   0.000e+00
   1.503e+00  -9.040e-01   0.000e+00
   1.434e+00  -7.842e-01   0.000e+00
   1.365e+00  -6.836e-01   0.000e+00
   1.298e+00  -6.001e-01   0.000e+00
   1.235e+00  -5.301e-01   0.000e+00
   1.176e+00  -4.712e-01   0.000e+00
   1.122e+00  -4.212e-01   0.000e+00
   1.071e+00  -3.785e-01   0.000e+00
   1.023e+00  -3.418e-01   0.000e+00
   9.793e-01  -3.101e-01   0.000e+00
   9.450e-01  -2.823e-01   0.000e+00
  -9.696e-01  -2.413e-01   0.000e+00
  -1.007e+00  -2.658e-01   0.000e+00
  -1.055e+00  -2.938e-01   0.000e+00
  -1.108e+00  -3.264e-01   0.000e+00
  -1.165e+00  -3.647e-01   0.000e+00
  -1.228e+00  -4.099e-01   0.000e+00
  -1.297e+00  -4.638e-01   0.000e+00
  -1.372e+00  -5.285e-01   0.000e+00
  -1.453e+00  -6.070e-01   0.000e+00
  -1.542e+00  -7.033e-01   0.000e+00
  -1.636e+00  -8.249e-01   0.000e+00
   1.931e-02   1.770e-02   0.000e+00
  -1.712e+00  -9.434e-01   0.000e+00
  -1.983e-03  -4.053e-03   0.000e+00
   1.796e-05   2.583e-04   0.000e+00
  -1.220e-04  -2.351e-04   0.000e+00
  -1.296e-04  -1.295e-04   0.000e+00
  -1.295e-04  -6.923e-05   0.000e+00
  -1.131e-04  -1.359e-05   0.000e+00
  -9.232e-05   3.351e-05   0.000e+00
  -5.048e-05   6.893e-05   0.000e+00
  -1.776e-15   8.096e-05   0.000e+00
   5.048e-05   6.893e-05   0.000e+00
   9.232e-05   3.351e-05   0.000e+00
   1.131e-04  -1.359e-05   0.000e+00
   1.295e-04  -6.923e-05   0.000e+00
   1.296e-04  -1.295e-04   0.000e+00
   1.220e-04  -2.351e-04   0.000e+00
  -1.796e-05   2.583e-04   0.000e+00
   1.983e-03  -4.053e-03   0.000e+00
  -1.931e-02   1.770e-02   0.000e+00
   1.712e+00  -9.434e-01   0.000e+00
   1.636e+00  -8.249e-01   0.000e+00
   1.542e+00  -7.033e-01   0.000e+00
   1.453e+00  -6.070e-01   0.000e+00
   1.372e+00  -5.285e-01   0.000e+00
   1.297e+00  -4.638e-01   0.000e+00
   1.228e+00  -4.099e-01   0.000e+00
   1.165e+00  -3.647e-01   0.000e+00
   1.108e+00  -3.264e-01   0.000e+00
   1.055e+00  -2.938e-01   0.000e+00
   1.007e+00  -2.658e-01   0.000e+00
   9.696e-01  -2.413e-01   0.000e+00
  -9.907e-01  -1.972e-01   0.000e+00
  -1.031e+00  -2.177e-01   0.000e+00
  -1.083e+00  -2.412e-01   0.000e+00
  -1.140e+00  -2.688e-01   0.000e+00
  -1.204e+00  -3.014e-01   0.000e+00
  -1.274e+00  -3.402e-01   0.000e+00
  -1.351e+00  -3.868e-01   0.000e+00
  -1.438e+00  -4.435e-01   0.000e+00
  -1.535e+00  -5.133e-01   0.000e+00
  -1.643e+00  -5.995e-01   0.000e+00
  -1.290e-02  -5.706e-02   0.000e+00
  -1.767e+00  -7.094e-01   0.000e+00
  -5.978e-03   1.596e-03   0.000e+00
  -1.849e+00  -8.579e-01   0.000e+00
   9.994e-04   1.040e-03   0.000e+00
  -1.945e-04  -5.015e-04   0.000e+00
  -5.387e-05  -1.524e-04   0.000e+00
  -6.925e-05  -1.295e-04   0.000e+00
  -7.295e-05  -7.294e-05   0.000e+00
  -6.869e-05  -2.757e-05   0.000e+00
  -5.386e-05   8.246e-06   0.000e+00
  -3.007e-05   3.169e-05   0.000e+00
   0.000e+00   4.008e-05   0.000e+00
   3.007e-05   3.169e-05   0.000e+00
   5.386e-05   8.246e-06   0.000e+00
   6.869e-05  -2.757e-05   0.000e+00
   7.295e-05  -7.294e-05   0.000e+00
   6.925e-05  -1.295e-04   0.000e+00
   5.387e-05  -1.524e-04   0.000e+00
   1.945e-04  -5.015e-04   0.000e+00
  -9.994e-04   1.040e-03   0.000e+00
   5.978e-03   1.596e-03   0.000e+00
   1.849e+00  -8.579e-01   0.000e+00
   1.290e-02  -5.706e-02   0.000e+00
   1.767e+00  -7.094e-01   0.000e+00
   1.643e+00  -5.995e-01   0.000e+00
   1.535e+00  -5.133e-01   0.000e+00
   1.438e+00  -4.435e-01   0.000e+00
   1.351e+00  -3.868e-01   0.000e+00
   1.274e+00  -3.402e-01   0.000e+00
   1.204e+00  -3.014e-01   0.000e+00
   1.140e+00  -2.688e-01   0.000e+00
   1.083e+00  -2.412e-01   0.000e+00
   1.031e+00  -2.177e-01   0.000e+00
   9.907e-01  -1.972e-01   0.000e+00
  -1.008e+00  -1.505e-01   0.000e+00
  -1.050e+00  -1.664e-01   0.000e+00
  -1.106e+00  -1.847e-01   0.000e+00
  -1.167e+00  -2.064e-01   0.000e+00
  -1.235e+00  -2.320e-01   0.000e+00
  -1.312e+00  -2.628e-01   0.000e+00
  -1.397e+00  -3.001e-01   0.000e+00
  -1.495e+00  -3.459e-01   0.000e+00
  -1.605e+00  -4.029e-01   0.000e+00
  -1.732e+00  -4.758e-01   0.000e+00
   2.639e-02   9.535e-03   0.000e+00
  -1.857e+00  -5.455e-01   0.000e+00
  -8.418e-04  -4.699e-03   0.000e+00
  -4.951e-04  -5.008e-04   0.000e+00
   8.500e-05  -1.743e-04   0.000e+00
  -4.895e-06  -1.948e-04   0.000e+00
  -1.362e-05  -1.131e-04   0.000e+00
  -2.759e-05  -6.868e-05   0.000e+00
  -3.226e-05  -3.225e-05   0.000e+00
  -2.787e-05  -5.665e-06   0.000e+00
  -1.603e-05   1.092e-05   0.000e+00
   1.776e-15   1.658e-05   0.000e+00
   1.603e-05   1.092e-05   0.000e+00
   2.787e-05  -5.665e-06   0.000e+00
   3.226e-05  -3.225e-05   0.000e+00
   2.759e-05  -6.868e-05   0.000e+00
   1.362e-05  -1.131e-04   0.000e+00
   4.895e-06  -1.948e-04   0.000e+00
  -8.500e-05  -1.743e-04   0.000e+00
   4.951e-04  -5.008e-04   0.000e+00
   8.418e-04  -4.699e-03   0.000e+00
  -2.639e-02   9.535e-03   0.000e+00
   1.857e+00  -5.455e-01   0.000e+00
   1.732e+00  -4.758e-01   0.000e+00
   1.605e+00  -4.029e-01   0.000e+00
   1.495e+00  -3.459e-01   0.000e+00
   1.397e+00  -3.001e-01   0.000e+00
   1.312e+00  -2.628e-01   0.000e+00
   1.235e+00  -2.320e-01   0.000e+00
   1.167e+00  -2.064e-01   0.000e+00
   1.106e+00  -1.847e-01   0.000e+00
   1.050e+00  -1.664e-01   0.000e+00
   1.008e+00  -1.505e-01   0.000e+00
  -1.020e+00  -1.015e-01   0.000e+00
  -1.064e+00  -1.124e-01   0.000e+00
  -1.122e+00  -1.250e-01   0.000e+00
  -1.187e+00  -1.399e-01   0.000e+00
  -1.259e+00  -1.577e-01   0.000e+00
  -1.340e+00  -1.790e-01   0.000e+00
  -1.432e+00  -2.051e-01   0.000e+00
  -1.538e+00  -2.373e-01   0.000e+00
  -1.660e+00  -2.780e-01   0.000e+00
  -1.802e+00  -3.295e-01   0.000e+00
   6.703e-03   2.666e-03   0.000e+00
  -1.913e+00  -3.861e-01   0.000e+00
   1.929e-03  -1.302e-05   0.000e+00
   2.554e-04  -6.893e-04   0.000e+00
   9.572e-05  -2.546e-04   0.000e+00
   7.791e-05  -1.406e-04   0.000e+00
   3.349e-05  -9.232e-05   0.000e+00
   8.231e-06  -5.385e-05   0.000e+00
  -5.676e-06  -2.787e-05   0.000e+00
  -9.705e-06  -9.697e-06   0.000e+00
  -6.702e-06   1.215e-06   0.000e+00
  -1.776e-15   4.879e-06   0.000e+00
   6.702e-06   1.215e-06   0.000e+00
   9.705e-06  -9.697e-06   0.000e+00
   5.676e-06  -2.787e-05   0.000e+00
  -8.231e-06  -5.385e-05   0.000e+00
  -3.349e-05  -9.232e-05   0.000e+00
  -7.791e-05  -1.406e-04   0.000e+00
  -9.572e-05  -2.546e-04   0.000e+00
  -2.554e-04  -6.893e-04   0.000e+00
  -1.929e-03  -1.302e-05   0.000e+00
  -6.703e-03   2.666e-03   0.000e+00
   1.913e+00  -3.861e-01   0.000e+00
   1.802e+00  -3.295e-01   0.000e+00
   1.660e+00  -2.780e-01   0.000e+00
   1.538e+00  -2.373e-01   0.000e+00
   1.432e+00  -2.051e-01   0.000e+00
   1.340e+00  -1.790e-01   0.000e+00
   1.259e+00  -1.577e-01   0.000e+00
   1.187e+00  -1.399e-01   0.000e+00
   1.122e+00  -1.250e-01   0.000e+00
   1.064e+00  -1.124e-01   0.000e+00
   1.020e+00  -1.015e-01   0.000e+00
  -1.028e+00  -5.115e-02   0.000e+00
  -1.073e+00  -5.668e-02   0.000e+00
  -1.133e+00  -6.309e-02   0.000e+00
  -1.199e+00  -7.068e-02   0.000e+00
  -1.273e+00  -7.975e-02   0.000e+00
  -1.358e+00  -9.071e-02   0.000e+00
  -1.454e+00  -1.041e-01   0.000e+00
  -1.565e+00  -1.208e-01   0.000e+00
  -1.694e+00  -1.419e-01   0.000e+00
  -1.847e+00  -1.696e-01   0.000e+00
   3.188e-03   2.591e-03   0.000e+00
  -1.956e+00  -2.002e-01   0.000e+00
   5.504e-04   3.768e-04   0.000e+00
   4.887e-04  -9.230e-05   0.000e+00
   2.314e-04  -1.580e-04   0.000e+00
   1.273e-04  -8.701e-05   0.000e+00
   6.892e-05  -5.048e-05   0.000e+00
   3.168e-05  -3.007e-05   0.000e+00
   1.091e-05  -1.602e-05   0.000e+00
   1.207e-06  -6.695e-06   0.000e+00
  -1.215e-06  -1.208e-06   0.000e+00
   0.000e+00   6.137e-07   0.000e+00
   1.215e-06  -1.208e-06   0.000e+00
  -1.207e-06  -6.695e-06   0.000e+00
  -1.091e-05  -1.602e-05   0.000e+00
  -3.168e-05  -3.007e-05   0.000e+00
  -6.892e-05  -5.048e-05   0.000e+00
  -1.273e-04  -8.701e-05   0.000e+00
  -2.314e-04  -1.580e-04   0.000e+00
  -4.887e-04  -9.230e-05   0.000e+00
  -5.504e-04   3.768e-04   0.000e+00
  -3.188e-03   2.591e-03   0.000e+00
   1.956e+00  -2.002e-01   0.000e+00
   1.847e+00  -1.696e-01   0.000e+00
   1.694e+00  -1.419e-01   0.000e+00
   1.565e+00  -1.208e-01   0.000e+00
   1.454e+00  -1.041e-01   0.000e+00
   1.358e+00  -9.071e-02   0.000e+00
   1.273e+00  -7.975e-02   0.000e+00
   1.199e+00  -7.068e-02   0.000e+00
   1.133e+00  -6.309e-02   0.000e+00
   1.073e+00  -5.668e-02   0.000e+00
   1.028e+00  -5.115e-02   0.000e+00
  -1.030e+00   3.469e-10   0.000e+00
  -1.076e+00   1.168e-09   0.000e+00
  -1.136e+00   2.353e-09   0.000e+00
  -1.203e+00   4.284e-09   0.000e+00
  -1.278e+00   7.584e-09   0.000e+00
  -1.364e+00   1.326e-08   0.000e+00
  -1.461e+00   2.293e-08   0.000e+00
  -1.574e+00   3.681e-08   0.000e+00
  -1.706e+00   5.848e-08   0.000e+00
  -1.862e+00   2.856e-08   0.000e+00
   1.331e-03  -6.403e-08   0.000e+00
  -1.971e+00   1.823e-07   0.000e+00
   1.935e-04  -5.720e-08   0.000e+00
   3.766e-04  -5.061e-08   0.000e+00
   2.779e-04  -2.706e-08   0.000e+00
   1.518e-04  -1.642e-08   0.000e+00
   8.095e-05  -6.731e-09   0.000e+00
   4.007e-05   1.968e-10   0.000e+00
   1.657e-05   3.811e-09   0.000e+00
   4.872e-06   5.441e-09   0.000e+00
   6.074e-07   6.075e-09   0.000e+00
   3.553e-15   6.236e-09   0.000e+00
  -6.074e-07   6.075e-09   0.000e+00
  -4.872e-06   5.441e-09   0.000e+00
  -1.657e-05   3.811e-09   0.000e+00
  -4.007e-05   1.968e-10   0.000e+00
  -8.095e-05  -6.731e-09   0.000e+00
  -1.518e-04  -1.642e-08   0.000e+00
  -2.779e-04  -2.706e-08   0.000e+00
  -3.766e-04  -5.061e-08   0.000e+00
  -1.935e-04  -5.720e-08   0.000e+00
  -1.331e-03  -6.403e-08   0.000e+00
   1.971e+00   1.823e-07   0.000e+00
   1.862e+00   2.856e-08   0.000e+00
   1.706e+00   5.848e-08   0.000e+00
   1.574e+00   3.681e-08   0.000e+00
   1.461e+00   2.293e-08   0.000e+00
   1.364e+00   1.326e-08   0.000e+00
   1.278e+00   7.584e-09   0.000e+00
   1.203e+00   4.285e-09   0.000e+00
   1.136e+00   2.353e-09   0.000e+00
   1.076e+00   1.168e-09   0.000e+00
   1.030e+00   3.469e-10   0.000e+00
  -1.028e+00   5.115e-02   0.000e+00
  -1.073e+00   5.668e-02   0.000e+00
  -1.133e+00   6.309e-02   0.000e+00
  -1.199e+00   7.068e-02   0.000e+00
  -1.273e+00   7.975e-02   0.000e+00
  -1.358e+00   9.071e-02   0.000e+00
  -1.454e+00   1.041e-01   0.000e+00
  -1.565e+00   1.208e-01   0.000e+00
  -1.694e+00   1.419e-01   0.000e+00
  -1.847e+00   1.696e-01   0.000e+00
   3.188e-03  -2.591e-03   0.000e+00
  -1.956e+00   2.002e-01   0.000e+00
   5.505e-04  -3.770e-04   0.000e+00
   4.888e-04   9.223e-05   0.000e+00
   2.314e-04   1.579e-04   0.000e+00
   1.273e-04   8.697e-05   0.000e+00
   6.894e-05   5.047e-05   0.000e+00
   3.169e-05   3.007e-05   0.000e+00
   1.091e-05   1.603e-05   0.000e+00
   1.209e-06   6.707e-06   0.000e+00
  -1.214e-06   1.221e-06   0.000e+00
   1.776e-15  -6.010e-07   0.000e+00
   1.214e-06   1.221e-06   0.000e+00
  -1.209e-06   6.707e-06   0.000e+00
  -1.091e-05   1.603e-05   0.000e+00
  -3.169e-05   3.007e-05   0.000e+00
  -6.894e-05   5.047e-05   0.000e+00
  -1.273e-04   8.697e-05   0.000e+00
  -2.314e-04   1.579e-04   0.000e+00
  -4.888e-04   9.223e-05   0.000e+00
  -5.505e-04  -3.770e-04   0.000e+00
  -3.188e-03  -2.591e-03   0.000e+00
   1.956e+00   2.002e-01   0.000e+00
   1.847e+00   1.696e-01   0.000e+00
   1.694e+00   1.419e-01   0.000e+00
   1.565e+00   1.208e-01   0.000e+00
   1.454e+00   1.041e-01   0.000e+00
   1.358e+00   9.071e-02   0.000e+00
   1.273e+00   7.975e-02   0.000e+00
   1.199e+00   7.068e-02   0.000e+00
   1.133e+00   6.309e-02   0.000e+00
   1.073e+00   5.668e-02   0.000e+00
   1.028e+00   5.115e-02   0.000e+00
  -1.020e+00   1.015e-01   0.000e+00
  -1.064e+00   1.124e-01   0.000e+00
  -1.122e+00   1.250e-01   0.000e+00
  -1.187e+00   1.399e-01   0.000e+00
  -1.259e+00   1.577e-01   0.000e+00
  -1.340e+00   1.790e-01   0.000e+00
  -1.432e+00   2.051e-01   0.000e+00
  -1.538e+00   2.373e-01   0.000e+00
  -1.660e+00   2.780e-01   0.000e+00
  -1.802e+00   3.295e-01   0.000e+00
   6.705e-03  -2.669e-03   0.000e+00
  -1.913e+00   3.861e-01   0.000e+00
   1.929e-03   1.322e-05   0.000e+00
   2.554e-04   6.893e-04   0.000e+00
   9.580e-05   2.545e-04   0.000e+00
   7.797e-05   1.406e-04   0.000e+00
   3.352e-05   9.233e-05   0.000e+00
   8.245e-06   5.387e-05   0.000e+00
  -5.670e-06   2.788e-05   0.000e+00
  -9.703e-06   9.711e-06   0.000e+00
  -6.701e-06  -1.201e-06   0.000e+00
   0.000e+00  -4.866e-06   0.000e+00
   6.701e-06  -1.201e-06   0.000e+00
   9.703e-06   9.711e-06   0.000e+00
   5.670e-06   2.788e-05   0.000e+00
  -8.245e-06   5.387e-05   0.000e+00
  -3.352e-05   9.233e-05   0.000e+00
  -7.797e-05   1.406e-04   0.000e+00
  -9.580e-05   2.545e-04   0.000e+00
  -2.554e-04   6.893e-04   0.000e+00
  -1.929e-03   1.322e-05   0.000e+00
  -6.705e-03  -2.669e-03   0.000e+00
   1.913e+00   3.861e-01   0.000e+00
   1.802e+00   3.295e-01   0.000e+00
   1.660e+00   2.780e-01   0.000e+00
   1.538e+00   2.373e-01   0.000e+00
   1.432e+00   2.051e-01   0.000e+00
   1.340e+00   1.790e-01   0.000e+00
   1.259e+00   1.577e-01   0.000e+00
   1.187e+00   1.399e-01   0.000e+00
   1.122e+00   1.250e-01   0.000e+00
   1.064e+00   1.124e-01   0.000e+00
   1.020e+00   1.015e-01   0.000e+00
  -1.008e+00   1.505e-01   0.000e+00
  -1.050e+00   1.664e-01   0.000e+00
  -1.106e+00   1.847e-01   0.000e+00
  -1.167e+00   2.064e-01   0.000e+00
  -1.235e+00   2.320e-01   0.000e+00
  -1.312e+00   2.628e-01   0.000e+00
  -1.397e+00   3.001e-01   0.000e+00
  -1.495e+00   3.459e-01   0.000e+00
  -1.605e+00   4.029e-01   0.000e+00
  -1.732e+00   4.758e-01   0.000e+00
   2.638e-02  -9.526e-03   0.000e+00
  -1.857e+00   5.455e-01   0.000e+00
  -8.431e-04   4.699e-03   0.000e+00
  -4.948e-04   5.003e-04   0.000e+00
   8.518e-05   1.742e-04   0.000e+00
  -4.808e-06   1.948e-04   0.000e+00
  -1.359e-05   1.132e-04   0.000e+00
  -2.758e-05   6.870e-05   0.000e+00
  -3.226e-05   3.227e-05   0.000e+00
  -2.787e-05   5.681e-06   0.000e+00
  -1.603e-05  -1.090e-05   0.000e+00
   1.776e-15  -1.656e-05   0.000e+00
   1.603e-05  -1.090e-05   0.000e+00
   2.787e-05   5.681e-06   0.000e+00
   3.226e-05   3.227e-05   0.000e+00
   2.758e-05   6.870e-05   0.000e+00
   1.359e-05   1.132e-04   0.000e+00
   4.808e-06   1.948e-04   0.000e+00
  -8.518e-05   1.742e-04   0.000e+00
   4.948e-04   5.003e-04   0.000e+00
   8.431e-04   4.699e-03   0.000e+00
  -2.638e-02  -9.526e-03   0.000e+00
   1.857e+00   5.455e-01   0.000e+00
   1.732e+00   4.758e-01   0.000e+00
   1.605e+00   4.029e-01   0.000e+00
   1.495e+00   3.459e-01   0.000e+00
   1.397e+00   3.001e-01   0.000e+00
   1.312e+00   2.628e-01   0.000e+00
   1.235e+00   2.320e-01   0.000e+00
   1.167e+00   2.064e-01   0.000e+00
   1.106e+00   1.847e-01   0.000e+00
   1.050e+00   1.664e-01   0.000e+00
   1.008e+00   1.505e-01   0.000e+00
  -9.907e-01   1.972e-01   0.000e+00
  -1.031e+00   2.177e-01   0.000e+00
  -1.083e+00   2.412e-01   0.000e+00
  -1.140e+00   2.688e-01   0.000e+00
  -1.204e+00   3.014e-01   0.000e+00
  -1.274e+00   3.402e-01   0.000e+00
  -1.351e+00   3.868e-01   0.000e+00
  -1.438e+00   4.435e-01   0.000e+00
  -1.535e+00   5.133e-01   0.000e+00
  -1.643e+00   5.995e-01   0.000e+00
  -1.285e-02   5.698e-02   0.000e+00
  -1.767e+00   7.094e-01   0.000e+00
  -5.970e-03  -1.606e-03   0.000e+00
  -1.849e+00   8.578e-01   0.000e+00
   9.999e-04  -1.040e-03   0.000e+00
  -1.943e-04   5.016e-04   0.000e+00
  -5.384e-05   1.526e-04   0.000e+00
  -6.924e-05   1.295e-04   0.000e+00
  -7.295e-05   7.297e-05   0.000e+00
  -6.869e-05   2.760e-05   0.000e+00
  -5.386e-05  -8.230e-06   0.000e+00
  -3.007e-05  -3.168e-05   0.000e+00
   3.553e-15  -4.006e-05   0.000e+00
   3.007e-05  -3.168e-05   0.000e+00
   5.386e-05  -8.230e-06   0.000e+00
   6.869e-05   2.760e-05   0.000e+00
   7.295e-05   7.297e-05   0.000e+00
   6.924e-05   1.295e-04   0.000e+00
   5.384e-05   1.526e-04   0.000e+00
   1.943e-04   5.016e-04   0.000e+00
  -9.999e-04  -1.040e-03   0.000e+00
   5.970e-03  -1.606e-03   0.000e+00
   1.849e+00   8.578e-01   0.000e+00
   1.285e-02   5.698e-02   0.000e+00
   1.767e+00   7.094e-01   0.000e+00
   1.643e+00   5.995e-01   0.000e+00
   1.535e+00   5.133e-01   0.000e+00
   1.438e+00   4.435e-01   0.000e+00
   1.351e+00   3.868e-01   0.000e+00
   1.274e+00   3.402e-01   0.000e+00
   1.204e+00   3.014e-01   0.000e+00
   1.140e+00   2.688e-01   0.000e+00
   1.083e+00   2.412e-01   0.000e+00
   1.031e+00   2.177e-01   0.000e+00
   9.907e-01   1.972e-01   0.000e+00
  -9.696e-01   2.413e-01   0.000e+00
  -1.007e+00   2.658e-01   0.000e+00
  -1.055e+00   2.938e-01   0.000e+00
  -1.108e+00   3.264e-01   0.000e+00
  -1.165e+00   3.647e-01   0.000e+00
  -1.228e+00   4.099e-01   0.000e+00
  -1.297e+00   4.638e-01   0.000e+00
  -1.372e+00   5.285e-01   0.000e+00
  -1.453e+00   6.070e-01   0.000e+00
  -1.542e+00   7.033e-01   0.000e+00
  -1.636e+00   8.248e-01   0.000e+00
   1.927e-02  -1.764e-02   0.000e+00
  -1.713e+00   9.434e-01   0.000e+00
  -1.981e-03   4.053e-03   0.000e+00
   1.767e-05  -2.576e-04   0.000e+00
  -1.221e-04   2.352e-04   0.000e+00
  -1.296e-04   1.296e-04   0.000e+00
  -1.295e-04   6.926e-05   0.000e+00
  -1.132e-04   1.361e-05   0.000e+00
  -9.233e-05  -3.350e-05   0.000e+00
  -5.048e-05  -6.892e-05   0.000e+00
   3.553e-15  -8.095e-05   0.000e+00
   5.048e-05  -6.892e-05   0.000e+00
   9.233e-05  -3.350e-05   0.000e+00
   1.132e-04   1.361e-05   0.000e+00
   1.295e-04   6.926e-05   0.000e+00
   1.296e-04   1.296e-04   0.000e+00
   1.221e-04   2.352e-04   0.000e+00
  -1.767e-05  -2.576e-04   0.000e+00
   1.981e-03   4.053e-03   0.000e+00
  -1.927e-02  -1.764e-02   0.000e+00
   1.713e+00   9.434e-01   0.000e+00
   1.636e+00   8.248e-01   0.000e+00
   1.542e+00   7.033e-01   0.000e+00
   1.453e+00   6.070e-01   0.000e+00
   1.372e+00   5.285e-01   0.000e+00
   1.297e+00   4.638e-01   0.000e+00
   1.228e+00   4.099e-01   0.000e+00
   1.165e+00   3.647e-01   0.000e+00
   1.108e+00   3.264e-01   0.000e+00
   1.055e+00   2.938e-01   0.000e+00
   1.007e+00   2.658e-01   0.000e+00
   9.696e-01   2.413e-01   0.000e+00
  -9.450e-01   2.823e-01   0.000e+00
  -9.793e-01   3.101e-01   0.000e+00
  -1.023e+00   3.418e-01   0.000e+00
  -1.071e+00   3.785e-01   0.000e+00
  -1.122e+00   4.212e-01   0.000e+00
  -1.176e+00   4.712e-01   0.000e+00
  -1.235e+00   5.301e-01   0.000e+00
  -1.298e+00   6.001e-01   0.000e+00
  -1.365e+00   6.836e-01   0.000e+00
  -1.434e+00   7.842e-01   0.000e+00
  -1.503e+00   9.040e-01   0.000e+00
  -1.986e-01   2.323e-01   0.000e+00
  -1.576e+00   1.055e+00   0.000e+00
   1.215e-05  -5.274e-03   0.000e+00
  -1.599e+00   1.203e+00   0.000e+00
  -1.107e-04   9.020e-04   0.000e+00
  -2.015e-04   2.015e-04   0.000e+00
  -2.351e-04   1.221e-04   0.000e+00
  -1.525e-04   5.386e-05   0.000e+00
  -1.948e-04   4.858e-06   0.000e+00
  -1.406e-04  -7.794e-05   0.000e+00
  -8.699e-05  -1.273e-04   0.000e+00
   1.776e-15  -1.518e-04   0.000e+00
   8.699e-05  -1.273e-04   0.000e+00
   1.406e-04  -7.794e-05   0.000e+00
   1.948e-04   4.858e-06   0.000e+00
   1.525e-04   5.386e-05   0.000e+00
   2.351e-04   1.221e-04   0.000e+00
   2.015e-04   2.015e-04   0.000e+00
   1.107e-04   9.020e-04   0.000e+00
  -1.215e-05  -5.274e-03   0.000e+00
   1.599e+00   1.203e+00   0.000e+00
   1.986e-01   2.323e-01   0.000e+00
   1.576e+00   1.055e+00   0.000e+00
   1.503e+00   9.040e-01   0.000e+00
   1.434e+00   7.842e-01   0.000e+00
   1.365e+00   6.836e-01   0.000e+00
   1.298e+00   6.001e-01   0.000e+00
   1.235e+00   5.301e-01   0.000e+00
   1.176e+00   4.712e-01   0.000e+00
   1.122e+00   4.212e-01   0.000e+00
   1.071e+00   3.785e-01   0.000e+00
   1.023e+00   3.418e-01   0.000e+00
   9.793e-01   3.101e-01   0.000e+00
   9.450e-01   2.823e-01   0.000e+00
  -9.175e-01   3.198e-01   0.000e+00
  -9.485e-01   3.503e-01   0.000e+00
  -9.878e-01   3.849e-01   0.000e+00
  -1.030e+00   4.246e-01   0.000e+00
  -1.074e+00   4.704e-01   0.000e+00
  -1.121e+00   5.236e-01   0.000e+00
  -1.170e+00   5.856e-01   0.000e+00
  -1.221e+00   6.582e-01   0.000e+00
  -1.273e+00   7.436e-01   0.000e+00
  -1.324e+00   8.441e-01   0.000e+00
  -1.374e+00   9.633e-01   0.000e+00
  -1.415e+00   1.103e+00   0.000e+00
   1.418e-02  -5.967e-03   0.000e+00
  -1.448e+00   1.267e+00   0.000e+00
  -1.070e-03   1.070e-03   0.000e+00
  -1.444e+00   1.444e+00   0.000e+00
  -9.023e-04   1.105e-04   0.000e+00
   2.579e-04  -1.782e-05   0.000e+00
  -5.016e-04   1.944e-04   0.000e+00
  -1.743e-04  -8.509e-05   0.000e+00
  -2.546e-04  -9.576e-05   0.000e+00
  -1.580e-04  -2.314e-04   0.000e+00
   0.000e+00  -2.779e-04   0.000e+00
   1.580e-04  -2.314e-04   0.000e+00
   2.546e-04  -9.576e-05   0.000e+00
   1.743e-04  -8.509e-05   0.000e+00
   5.016e-04   1.944e-04   0.000e+00
  -2.579e-04  -1.782e-05   0.000e+00
   9.023e-04   1.105e-04   0.000e+00
   1.070e-03   1.070e-03   0.000e+00
   1.444e+00   1.444e+00   0.000e+00
  -1.418e-02  -5.967e-03   0.000e+00
   1.448e+00   1.267e+00   0.000e+00
   1.415e+00   1.103e+00   0.000e+00
   1.374e+00   9.633e-01   0.000e+00
   1.324e+00   8.441e-01   0.000e+00
   1.273e+00   7.436e-01   0.000e+00
   1.221e+00   6.582e-01   0.000e+00
   1.170e+00   5.856e-01   0.000e+00
   1.121e+00   5.236e-01   0.000e+00
   1.074e+00   4.704e-01   0.000e+00
   1.030e+00   4.246e-01   0.000e+00
   9.878e-01   3.849e-01   0.000e+00
   9.485e-01   3.503e-01   0.000e+00
   9.175e-01   3.198e-01   0.000e+00
  -8.876e-01   3.536e-01   0.000e+00
  -9.152e-01   3.862e-01   0.000e+00
  -9.498e-01   4.229e-01   0.000e+00
  -9.860e-01   4.646e-01   0.000e+00
  -1.024e+00   5.125e-01   0.000e+00
  -1.063e+00   5.674e-01   0.000e+00
  -1.103e+00   6.306e-01   0.000e+00
  -1.143e+00   7.037e-01   0.000e+00
  -1.181e+00   7.883e-01   0.000e+00
  -1.217e+00   8.862e-01   0.000e+00
  -1.248e+00   9.995e-01   0.000e+00
  -1.270e+00   1.130e+00   0.000e+00
  -1.279e+00   1.279e+00   0.000e+00
   5.959e-03  -1.418e-02   0.000e+00
  -1.267e+00   1.448e+00   0.000e+00
   5.277e-03  -1.433e-05   0.000e+00
  -1.203e+00   1.599e+00   0.000e+00
  -4.053e-03   1.982e-03   0.000e+00
   1.040e-03  -9.997e-04   0.000e+00
  -5.005e-04   4.949e-04   0.000e+00
  -6.893e-04  -2.554e-04   0.000e+00
  -9.227e-05  -4.888e-04   0.000e+00
   0.000e+00  -3.766e-04   0.000e+00
   9.227e-05  -4.888e-04   0.000e+00
   6.893e-04  -2.554e-04   0.000e+00
   5.005e-04   4.949e-04   0.000e+00
  -1.040e-03  -9.997e-04   0.000e+00
   4.053e-03   1.982e-03   0.000e+00
  -5.277e-03  -1.433e-05   0.000e+00
   1.203e+00   1.599e+00   0.000e+00
  -5.959e-03  -1.418e-02   0.000e+00
   1.267e+00   1.448e+00   0.000e+00
   1.279e+00   1.279e+00   0.000e+00
   1.270e+00   1.130e+00   0.000e+00
   1.248e+00   9.995e-01   0.000e+00
   1.217e+00   8.862e-01   0.000e+00
   1.181e+00   7.883e-01   0.000e+00
   1.143e+00   7.037e-01   0.000e+00
   1.103e+00   6.306e-01   0.000e+00
   1.063e+00   5.674e-01   0.000e+00
   1.024e+00   5.125e-01   0.000e+00
   9.860e-01   4.646e-01   0.000e+00
   9.498e-01   4.229e-01   0.000e+00
   9.152e-01   3.862e-01   0.000e+00
   8.876e-01   3.536e-01   0.000e+00
  -8.561e-01   3.838e-01   0.000e+00
  -8.802e-01   4.178e-01   0.000e+00
  -9.101e-01   4.558e-01   0.000e+00
  -9.409e-01   4.987e-01   0.000e+00
  -9.724e-01   5.475e-01   0.000e+00
  -1.004e+00   6.029e-01   0.000e+00
  -1.035e+00   6.659e-01   0.000e+00
  -1.065e+00   7.378e-01   0.000e+00
  -1.092e+00   8.197e-01   0.000e+00
  -1.115e+00   9.130e-01   0.000e+00
  -1.131e+00   1.019e+00   0.000e+00
  -1.138e+00   1.138e+00   0.000e+00
  -1.130e+00   1.270e+00   0.000e+00
  -1.103e+00   1.415e+00   0.000e+00
  -2.324e-01   1.987e-01   0.000e+00
  -1.055e+00   1.576e+00   0.000e+00
   1.767e-02  -1.929e-02   0.000e+00
  -9.434e-01   1.713e+00   0.000e+00
   1.601e-03   5.974e-03   0.000e+00
  -8.579e-01   1.849e+00   0.000e+00
  -4.699e-03   8.425e-04   0.000e+00
  -1.313e-05  -1.929e-03   0.000e+00
   3.769e-04  -5.504e-04   0.000e+00
  -5.329e-15  -1.935e-04   0.000e+00
  -3.769e-04  -5.504e-04   0.000e+00
   1.313e-05  -1.929e-03   0.000e+00
   4.699e-03   8.425e-04   0.000e+00
  -1.601e-03   5.974e-03   0.000e+00
   8.579e-01   1.849e+00   0.000e+00
  -1.767e-02  -1.929e-02   0.000e+00
   9.434e-01   1.713e+00   0.000e+00
   2.324e-01   1.987e-01   0.000e+00
   1.055e+00   1.576e+00   0.000e+00
   1.103e+00   1.415e+00   0.000e+00
   1.130e+00   1.270e+00   0.000e+00
   1.138e+00   1.138e+00   0.000e+00
   1.131e+00   1.019e+00   0.000e+00
   1.115e+00   9.130e-01   0.000e+00
   1.092e+00   8.197e-01   0.000e+00
   1.065e+00   7.378e-01   0.000e+00
   1.035e+00   6.659e-01   0.000e+00
   1.004e+00   6.029e-01   0.000e+00
   9.724e-01   5.475e-01   0.000e+00
   9.409e-01   4.987e-01   0.000e+00
   9.101e-01   4.558e-01   0.000e+00
   8.802e-01   4.178e-01   0.000e+00
   8.561e-01   3.838e-01   0.000e+00
  -8.233e-01   4.102e-01   0.000e+00
  -8.441e-01   4.450e-01   0.000e+00
  -8.695e-01   4.837e-01   0.000e+00
  -8.951e-01   5.271e-01   0.000e+00
  -9.206e-01   5.759e-01   0.000e+00
  -9.455e-01   6.307e-01   0.000e+00
  -9.689e-01   6.924e-01   0.000e+00
  -9.900e-01   7.619e-01   0.000e+00
  -1.008e+00   8.399e-01   0.000e+00
  -1.020e+00   9.271e-01   0.000e+00
  -1.024e+00   1.024e+00   0.000e+00
  -1.019e+00   1.131e+00   0.000e+00
  -9.995e-01   1.248e+00   0.000e+00
  -9.633e-01   1.374e+00   0.000e+00
  -9.040e-01   1.503e+00   0.000e+00
  -8.249e-01   1.636e+00   0.000e+00
  -5.702e-02   1.287e-02   0.000e+00
  -7.094e-01   1.767e+00   0.000e+00
   9.531e-03  -2.639e-02   0.000e+00
  -5.455e-01   1.857e+00   0.000e+00
   2.667e-03  -6.704e-03   0.000e+00
  -3.861e-01   1.913e+00   0.000e+00
   2.591e-03  -3.188e-03   0.000e+00
  -2.002e-01   1.956e+00   0.000e+00
  -7.105e-15  -1.331e-03   0.000e+00
  -1.776e-14   1.971e+00   0.000e+00
  -2.591e-03  -3.188e-03   0.000e+00
   2.002e-01   1.956e+00   0.000e+00
  -2.667e-03  -6.704e-03   0.000e+00
   3.861e-01   1.913e+00   0.000e+00
  -9.531e-03  -2.639e-02   0.000e+00
   5.455e-01   1.857e+00   0.000e+00
   5.702e-02   1.287e-02   0.000e+00
   7.094e-01   1.767e+00   0.000e+00
   8.249e-01   1.636e+00   0.000e+00
   9.040e-01   1.503e+00   0.000e+00
   9.633e-01   1.374e+00   0.000e+00
   9.995e-01   1.248e+00   0.000e+00
   1.019e+00   1.131e+00   0.000e+00
   1.024e+00   1.024e+00   0.000e+00
   1.020e+00   9.271e-01   0.000e+00
   1.008e+00   8.399e-01   0.000e+00
   9.900e-01   7.619e-01   0.000e+00
   9.689e-01   6.924e-01   0.000e+00
   9.455e-01   6.307e-01   0.000e+00
   9.206e-01   5.759e-01   0.000e+00
   8.951e-01   5.271e-01   0.000e+00
   8.695e-01   4.837e-01   0.000e+00
   8.441e-01   4.450e-01   0.000e+00
   8.233e-01   4.102e-01   0.000e+00
  -7.899e-01   4.330e-01   0.000e+00
  -8.075e-01   4.682e-01   0.000e+00
  -8.287e-01   5.070e-01   0.000e+00
  -8.495e-01   5.501e-01   0.000e+00
  -8.695e-01   5.982e-01   0.000e+00
  -8.882e-01   6.517e-01   0.000e+00
  -9.049e-01   7.112e-01   0.000e+00
  -9.185e-01   7.774e-01   0.000e+00
  -9.278e-01   8.506e-01   0.000e+00
  -9.313e-01   9.313e-01   0.000e+00
  -9.271e-01   1.020e+00   0.000e+00
  -9.130e-01   1.115e+00   0.000e+00
  -8.862e-01   1.217e+00   0.000e+00
  -8.441e-01   1.324e+00   0.000e+00
  -7.842e-01   1.434e+00   0.000e+00
  -7.033e-01   1.542e+00   0.000e+00
  -5.995e-01   1.643e+00   0.000e+00
  -4.758e-01   1.732e+00   0.000e+00
  -3.295e-01   1.802e+00   0.000e+00
  -1.696e-01   1.847e+00   0.000e+00
  -1.776e-15   1.862e+00   0.000e+00
   1.696e-01   1.847e+00   0.000e+00
   3.295e-01   1.802e+00   0.000e+00
   4.758e-01   1.732e+00   0.000e+00
   5.995e-01   1.643e+00   0.000e+00
   7.033e-01   1.542e+00   0.000e+00
   7.842e-01   1.434e+00   0.000e+00
   8.441e-01   1.324e+00   0.000e+00
   8.862e-01   1.217e+00   0.000e+00
   9.130e-01   1.115e+00   0.000e+00
   9.271e-01   1.020e+00   0.000e+00
   9.313e-01   9.313e-01   0.000e+00
   9.278e-01   8.506e-01   0.000e+00
   9.185e-01   7.774e-01   0.000e+00
   9.049e-01   7.112e-01   0.000e+00
   8.882e-01   6.517e-01   0.000e+00
   8.695e-01   5.982e-01   0.000e+00
   8.495e-01   5.501e-01   0.000e+00
   8.287e-01   5.070e-01   0.000e+00
   8.075e-01   4.682e-01   0.000e+00
   7.899e-01   4.330e-01   0.000e+00
  -7.563e-01   4.524e-01   0.000e+00
  -7.709e-01   4.875e-01   0.000e+00
  -7.881e-01   5.259e-01   0.000e+00
  -8.045e-01   5.683e-01   0.000e+00
  -8.196e-01   6.151e-01   0.000e+00
  -8.330e-01   6.666e-01   0.000e+00
  -8.438e-01   7.234e-01   0.000e+00
  -8.511e-01   7.857e-01   0.000e+00
  -8.538e-01   8.538e-01   0.000e+00
  -8.506e-01   9.278e-01   0.000e+00
  -8.399e-01   1.008e+00   0.000e+00
  -8.197e-01   1.092e+00   0.000e+00
  -7.883e-01   1.181e+00   0.000e+00
  -7.436e-01   1.273e+00   0.000e+00
  -6.836e-01   1.365e+00   0.000e+00
  -6.070e-01   1.453e+00   0.000e+00
  -5.133e-01   1.535e+00   0.000e+00
  -4.029e-01   1.605e+00   0.000e+00
  -2.780e-01   1.660e+00   0.000e+00
  -1.419e-01   1.694e+00   0.000e+00
  -3.553e-15   1.706e+00   0.000e+00
   1.419e-01   1.694e+00   0.000e+00
   2.780e-01   1.660e+00   0.000e+00
   4.029e-01   1.605e+00   0.000e+00
   5.133e-01   1.535e+00   0.000e+00
   6.070e-01   1.453e+00   0.000e+00
   6.836e-01   1.365e+00   0.000e+00
   7.436e-01   1.273e+00   0.000e+00
   7.883e-01   1.181e+00   0.000e+00
   8.197e-01   1.092e+00   0.000e+00
   8.399e-01   1.008e+00   0.000e+00
   8.506e-01   9.278e-01   0.000e+00
   8.538e-01   8.538e-01   0.000e+00
   8.511e-01   7.857e-01   0.000e+00
   8.438e-01   7.234e-01   0.000e+00
   8.330e-01   6.666e-01   0.000e+00
   8.196e-01   6.151e-01   0.000e+00
   8.045e-01   5.683e-01   0.000e+00
   7.881e-01   5.259e-01   0.000e+00
   7.709e-01   4.875e-01   0.000e+00
   7.563e-01   4.524e-01   0.000e+00
  -7.228e-01   4.685e-01   0.000e+00
  -7.347e-01   5.032e-01   0.000e+00
  -7.483e-01   5.408e-01   0.000e+00
  -7.607e-01   5.820e-01   0.000e+00
  -7.715e-01   6.271e-01   0.000e+00
  -7.802e-01   6.764e-01   0.000e+00
  -7.861e-01   7.300e-01   0.000e+00
  -7.883e-01   7.883e-01   0.000e+00
  -7.857e-01   8.511e-01   0.000e+00
  -7.774e-01   9.185e-01   0.000e+00
  -7.619e-01   9.900e-01   0.000e+00
  -7.378e-01   1.065e+00   0.000e+00
  -7.037e-01   1.143e+00   0.000e+00
  -6.582e-01   1.221e+00   0.000e+00
  -6.001e-01   1.298e+00   0.000e+00
  -5.285e-01   1.372e+00   0.000e+00
  -4.435e-01   1.438e+00   0.000e+00
  -3.459e-01   1.495e+00   0.000e+00
  -2.373e-01   1.538e+00   0.000e+00
  -1.208e-01   1.565e+00   0.000e+00
  -1.776e-15   1.574e+00   0.000e+00
   1.208e-01   1.565e+00   0.000e+00
   2.373e-01   1.538e+00   0.000e+00
   3.459e-01   1.495e+00   0.000e+00
   4.435e-01   1.438e+00   0.000e+00
   5.285e-01   1.372e+00   0.000e+00
   6.001e-01   1.298e+00   0.000e+00
   6.582e-01   1.221e+00   0.000e+00
   7.037e-01   1.143e+00   0.000e+00
   7.378e-01   1.065e+00   0.000e+00
   7.619e-01   9.900e-01   0.000e+00
   7.774e-01   9.185e-01   0.000e+00
   7.857e-01   8.511e-01   0.000e+00
   7.883e-01   7.883e-01   0.000e+00
   7.861e-01   7.300e-01   0.000e+00
   7.802e-01   6.764e-01   0.000e+00
   7.715e-01   6.271e-01   0.000e+00
   7.607e-01   5.820e-01   0.000e+00
   7.483e-01   5.408e-01   0.000e+00
   7.347e-01   5.032e-01   0.000e+00
   7.228e-01   4.685e-01   0.000e+00
  -6.898e-01   4.817e-01   0.000e+00
  -6.992e-01   5.156e-01   0.000e+00
  -7.095e-01   5.522e-01   0.000e+00
  -7.185e-01   5.919e-01   0.000e+00
  -7.256e-01   6.350e-01   0.000e+00
  -7.303e-01   6.817e-01   0.000e+00
  -7.320e-01   7.320e-01   0.000e+00
  -7.300e-01   7.861e-01   0.000e+00
  -7.234e-01   8.438e-01   0.000e+00
  -7.112e-01   9.049e-01   0.000e+00
  -6.924e-01   9.689e-01   0.000e+00
  -6.659e-01   1.035e+00   0.000e+00
  -6.306e-01   1.103e+00   0.000e+00
  -5.856e-01   1.170e+00   0.000e+00
  -5.301e-01   1.235e+00   0.000e+00
  -4.638e-01   1.297e+00   0.000e+00
  -3.868e-01   1.351e+00   0.000e+00
  -3.001e-01   1.397e+00   0.000e+00
  -2.051e-01   1.432e+00   0.000e+00
  -1.041e-01   1.454e+00   0.000e+00
  -1.776e-15   1.461e+00   0.000e+00
   1.041e-01   1.454e+00   0.000e+00
   2.051e-01   1.432e+00   0.000e+00
   3.001e-01   1.397e+00   0.000e+00
   3.868e-01   1.351e+00   0.000e+00
   4.638e-01   1.297e+00   0.000e+00
   5.301e-01   1.235e+00   0.000e+00
   5.856e-01   1.170e+00   0.000e+00
   6.306e-01   1.103e+00   0.000e+00
   6.659e-01   1.035e+00   0.000e+00
   6.924e-01   9.689e-01   0.000e+00
   7.112e-01   9.049e-01   0.000e+00
   7.234e-01   8.438e-01   0.000e+00
   7.300e-01   7.861e-01   0.000e+00
   7.320e-01   7.320e-01   0.000e+00
   7.303e-01   6.817e-01   0.000e+00
   7.256e-01   6.350e-01   0.000e+00
   7.185e-01   5.919e-01   0.000e+00
   7.095e-01   5.522e-01   0.000e+00
   6.992e-01   5.156e-01   0.000e+00
   6.898e-01   4.817e-01   0.000e+00
  -6.576e-01   4.922e-01   0.000e+00
  -6.647e-01   5.250e-01   0.000e+00
  -6.721e-01   5.603e-01   0.000e+00
  -6.780e-01   5.984e-01   0.000e+00
  -6.819e-01   6.394e-01   0.000e+00
  -6.833e-01   6.833e-01   0.000e+00
  -6.817e-01   7.303e-01   0.000e+00
  -6.764e-01   7.802e-01   0.000e+00
  -6.666e-01   8.330e-01   0.000e+00
  -6.517e-01   8.882e-01   0.000e+00
  -6.307e-01   9.455e-01   0.000e+00
  -6.029e-01   1.004e+00   0.000e+00
  -5.674e-01   1.063e+00   0.000e+00
  -5.236e-01   1.121e+00   0.000e+00
  -4.712e-01   1.176e+00   0.000e+00
  -4.099e-01   1.228e+00   0.000e+00
  -3.402e-01   1.274e+00   0.000e+00
  -2.628e-01   1.312e+00   0.000e+00
  -1.790e-01   1.340e+00   0.000e+00
  -9.071e-02   1.358e+00   0.000e+00
  -1.776e-15   1.364e+00   0.000e+00
   9.071e-02   1.358e+00   0.000e+00
   1.790e-01   1.340e+00   0.000e+00
   2.628e-01   1.312e+00   0.000e+00
   3.402e-01   1.274e+00   0.000e+00
   4.099e-01   1.228e+00   0.000e+00
   4.712e-01   1.176e+00   0.000e+00
   5.236e-01   1.121e+00   0.000e+00
   5.674e-01   1.063e+00   0.000e+00
   6.029e-01   1.004e+00   0.000e+00
   6.307e-01   9.455e-01   0.000e+00
   6.517e-01   8.882e-01   0.000e+00
   6.666e-01   8.330e-01   0.000e+00
   6.764e-01   7.802e-01   0.000e+00
   6.817e-01   7.303e-01   0.000e+00
   6.833e-01   6.833e-01   0.000e+00
   6.819e-01   6.394e-01   0.000e+00
   6.780e-01   5.984e-01   0.000e+00
   6.721e-01   5.603e-01   0.000e+00
   6.647e-01   5.250e-01   0.000e+00
   6.576e-01   4.922e-01   0.000e+00
  -6.263e-01   5.001e-01   0.000e+00
  -6.314e-01   5.319e-01   0.000e+00
  -6.363e-01   5.657e-01   0.000e+00
  -6.395e-01   6.020e-01   0.000e+00
  -6.407e-01   6.407e-01   0.000e+00
  -6.394e-01   6.819e-01   0.000e+00
  -6.350e-01   7.256e-01   0.000e+00
  -6.271e-01   7.715e-01   0.000e+00
  -6.151e-01   8.196e-01   0.000e+00
  -5.982e-01   8.695e-01   0.000e+00
  -5.759e-01   9.206e-01   0.000e+00
  -5.475e-01   9.724e-01   0.000e+00
  -5.125e-01   1.024e+00   0.000e+00
  -4.704e-01   1.074e+00   0.000e+00
  -4.212e-01   1.122e+00   0.000e+00
  -3.647e-01   1.165e+00   0.000e+00
  -3.014e-01   1.204e+00   0.000e+00
  -2.320e-01   1.235e+00   0.000e+00
  -1.577e-01   1.259e+00   0.000e+00
  -7.975e-02   1.273e+00   0.000e+00
  -1.776e-15   1.278e+00   0.000e+00
   7.975e-02   1.273e+00   0.000e+00
   1.577e-01   1.259e+00   0.000e+00
   2.320e-01   1.235e+00   0.000e+00
   3.014e-01   1.204e+00   0.000e+00
   3.647e-01   1.165e+00   0.000e+00
   4.212e-01   1.122e+00   0.000e+00
   4.704e-01   1.074e+00   0.000e+00
   5.125e-01   1.024e+00   0.000e+00
   5.475e-01   9.724e-01   0.000e+00
   5.759e-01   9.206e-01   0.000e+00
   5.982e-01   8.695e-01   0.000e+00
   6.151e-01   8.196e-01   0.000e+00
   6.271e-01   7.715e-01   0.000e+00
   6.350e-01   7.256e-01   0.000e+00
   6.394e-01   6.819e-01   0.000e+00
   6.407e-01   6.407e-01   0.000e+00
   6.395e-01   6.020e-01   0.000e+00
   6.363e-01   5.657e-01   0.000e+00
   6.314e-01   5.319e-01   0.000e+00
   6.263e-01   5.001e-01   0.000e+00
  -5.961e-01   5.059e-01   0.000e+00
  -5.994e-01   5.364e-01   0.000e+00
  -6.021e-01   5.687e-01   0.000e+00
  -6.031e-01   6.031e-01   0.000e+00
  -6.020e-01   6.395e-01   0.000e+00
  -5.984e-01   6.780e-01   0.000e+00
  -5.919e-01   7.185e-01   0.000e+00
  -5.820e-01   7.607e-01   0.000e+00
  -5.683e-01   8.045e-01   0.000e+00
  -5.501e-01   8.495e-01   0.000e+00
  -5.271e-01   8.951e-01   0.000e+00
  -4.987e-01   9.409e-01   0.000e+00
  -4.646e-01   9.860e-01   0.000e+00
  -4.246e-01   1.030e+00   0.000e+00
  -3.785e-01   1.071e+00   0.000e+00
  -3.264e-01   1.108e+00   0.000e+00
  -2.688e-01   1.140e+00   0.000e+00
  -2.064e-01   1.167e+00   0.000e+00
  -1.399e-01   1.187e+00   0.000e+00
  -7.068e-02   1.199e+00   0.000e+00
  -3.553e-15   1.203e+00   0.000e+00
   7.068e-02   1.199e+00   0.000e+00
   1.399e-01   1.187e+00   0.000e+00
   2.064e-01   1.167e+00   0.000e+00
   2.688e-01   1.140e+00   0.000e+00
   3.264e-01   1.108e+00   0.000e+00
   3.785e-01   1.071e+00   0.000e+00
   4.246e-01   1.030e+00   0.000e+00
   4.646e-01   9.860e-01   0.000e+00
   4.987e-01   9.409e-01   0.000e+00
   5.271e-01   8.951e-01   0.000e+00
   5.501e-01   8.495e-01   0.000e+00
   5.683e-01   8.045e-01   0.000e+00
   5.820e-01   7.607e-01   0.000e+00
   5.919e-01   7.185e-01   0.000e+00
   5.984e-01   6.780e-01   0.000e+00
   6.020e-01   6.395e-01   0.000e+00
   6.031e-01   6.031e-01   0.000e+00
   6.021e-01   5.687e-01   0.000e+00
   5.994e-01   5.364e-01   0.000e+00
   5.961e-01   5.059e-01   0.000e+00
  -5.670e-01   5.098e-01   0.000e+00
  -5.688e-01   5.389e-01   0.000e+00
  -5.696e-01   5.696e-01   0.000e+00
  -5.687e-01   6.021e-01   0.000e+00
  -5.657e-01   6.363e-01   0.000e+00
  -5.603e-01   6.721e-01   0.000e+00
  -5.522e-01   7.095e-01   0.000e+00
  -5.408e-01   7.483e-01   0.000e+00
  -5.259e-01   7.881e-01   0.000e+00
  -5.070e-01   8.287e-01   0.000e+00
  -4.837e-01   8.695e-01   0.000e+00
  -4.558e-01   9.101e-01   0.000e+00
  -4.229e-01   9.498e-01   0.000e+00
  -3.849e-01   9.878e-01   0.000e+00
  -3.418e-01   1.023e+00   0.000e+00
  -2.938e-01   1.055e+00   0.000e+00
  -2.412e-01   1.083e+00   0.000e+00
  -1.847e-01   1.106e+00   0.000e+00
  -1.250e-01   1.122e+00   0.000e+00
  -6.309e-02   1.133e+00   0.000e+00
  -3.553e-15   1.136e+00   0.000e+00
   6.309e-02   1.133e+00   0.000e+00
   1.250e-01   1.122e+00   0.000e+00
   1.847e-01   1.106e+00   0.000e+00
   2.412e-01   1.083e+00   0.000e+00
   2.938e-01   1.055e+00   0.000e+00
   3.418e-01   1.023e+00   0.000e+00
   3.849e-01   9.878e-01   0.000e+00
   4.229e-01   9.498e-01   0.000e+00
   4.558e-01   9.101e-01   0.000e+00
   4.837e-01   8.695e-01   0.000e+00
   5.070e-01   8.287e-01   0.000e+00
   5.259e-01   7.881e-01   0.000e+00
   5.408e-01   7.483e-01   0.000e+00
   5.522e-01   7.095e-01   0.000e+00
   5.603e-01   6.721e-01   0.000e+00
   5.657e-01   6.363e-01   0.000e+00
   5.687e-01   6.021e-01   0.000e+00
   5.696e-01   5.696e-01   0.000e+00
   5.688e-01   5.389e-01   0.000e+00
   5.670e-01   5.098e-01   0.000e+00
  -5.393e-01   5.120e-01   0.000e+00
  -5.397e-01   5.397e-01   0.000e+00
  -5.389e-01   5.688e-01   0.000e+00
  -5.364e-01   5.994e-01   0.000e+00
  -5.319e-01   6.314e-01   0.000e+00
  -5.250e-01   6.647e-01   0.000e+00
  -5.156e-01   6.992e-01   0.000e+00
  -5.032e-01   7.347e-01   0.000e+00
  -4.875e-01   7.709e-01   0.000e+00
  -4.682e-01   8.075e-01   0.000e+00
  -4.450e-01   8.441e-01   0.000e+00
  -4.178e-01   8.802e-01   0.000e+00
  -3.862e-01   9.152e-01   0.000e+00
  -3.503e-01   9.485e-01   0.000e+00
  -3.101e-01   9.793e-01   0.000e+00
  -2.658e-01   1.007e+00   0.000e+00
  -2.177e-01   1.031e+00   0.000e+00
  -1.664e-01   1.050e+00   0.000e+00
  -1.124e-01   1.064e+00   0.000e+00
  -5.668e-02   1.073e+00   0.000e+00
   3.553e-15   1.076e+00   0.000e+00
   5.668e-02   1.073e+00   0.000e+00
   1.124e-01   1.064e+00   0.000e+00
   1.664e-01   1.050e+00   0.000e+00
   2.177e-01   1.031e+00   0.000e+00
   2.658e-01   1.007e+00   0.000e+00
   3.101e-01   9.793e-01   0.000e+00
   3.503e-01   9.485e-01   0.000e+00
   3.862e-01   9.152e-01   0.000e+00
   4.178e-01   8.802e-01   0.000e+00
   4.450e-01   8.441e-01   0.000e+00
   4.682e-01   8.075e-01   0.000e+00
   4.875e-01   7.709e-01   0.000e+00
   5.032e-01   7.347e-01   0.000e+00
   5.156e-01   6.992e-01   0.000e+00
   5.250e-01   6.647e-01   0.000e+00
   5.319e-01   6.314e-01   0.000e+00
   5.364e-01   5.994e-01   0.000e+00
   5.389e-01   5.688e-01   0.000e+00
   5.397e-01   5.397e-01   0.000e+00
   5.393e-01   5.120e-01   0.000e+00
  -5.127e-01   5.127e-01   0.000e+00
  -5.120e-01   5.393e-01   0.000e+00
  -5.098e-01   5.670e-01   0.000e+00
  -5.059e-01   5.961e-01   0.000e+00
  -5.001e-01   6.263e-01   0.000e+00
  -4.922e-01   6.576e-01   0.000e+00
  -4.817e-01   6.898e-01   0.000e+00
  -4.685e-01   7.228e-01   0.000e+00
  -4.524e-01   7.563e-01   0.000e+00
  -4.330e-01   7.899e-01   0.000e+00
  -4.102e-01   8.233e-01   0.000e+00
  -3.838e-01   8.561e-01   0.000e+00
  -3.536e-01   8.876e-01   0.000e+00
  -3.198e-01   9.175e-01   0.000e+00
  -2.823e-01   9.450e-01   0.000e+00
  -2.413e-01   9.696e-01   0.000e+00
  -1.972e-01   9.907e-01   0.000e+00
  -1.505e-01   1.008e+00   0.000e+00
  -1.015e-01   1.020e+00   0.000e+00
  -5.115e-02   1.028e+00   0.000e+00
  -1.066e-14   1.030e+00   0.000e+00
   5.115e-02   1.028e+00   0.000e+00
   1.015e-01   1.020e+00   0.000e+00
   1.505e-01   1.008e+00   0.000e+00
   1.972e-01   9.907e-01   0.000e+00
   2.413e-01   9.696e-01   0.000e+00
   2.823e-01   9.450e-01   0.000e+00
   3.198e-01   9.175e-01   0.000e+00
   3.536e-01   8.876e-01   0.000e+00
   3.838e-01   8.561e-01   0.000e+00
   4.102e-01   8.233e-01   0.000e+00
   4.330e-01   7.899e-01   0.000e+00
   4.524e-01   7.563e-01   0.000e+00
   4.685e-01   7.228e-01   0.000e+00
   4.817e-01   6.898e-01   0.000e+00
   4.922e-01   6.576e-01   0.000e+00
   5.001e-01   6.263e-01   0.000e+00
   5.059e-01   5.961e-01   0.000e+00
   5.098e-01   5.670e-01   0.000e+00
   5.120e-01   5.393e-01   0.000e+00
   5.127e-01   5.127e-01   0.000e+00

POINT_DATA 2084
VECTORS displacement float
   2.040e+00   0.000e+00   0.000e+00
   2.015e+00   0.000e+00   0.000e+00
   1.991e+00   0.000e+00   0.000e+00
   1.967e+00   0.000e+00   0.000e+00
   1.943e+00   0.000e+00   0.000e+00
   1.919e+00   0.000e+00   0.000e+00
   1.896e+00   0.000e+00   0.000e+00
   1.873e+00   0.000e+00   0.000e+00
   1.851e+00   0.000e+00   0.000e+00
   1.830e+00   0.000e+00   0.000e+00
   1.810e+00   0.000e+00   0.000e+00
   1.791e+00   0.000e+00   0.000e+00
   1.773e+00   0.000e+00   0.000e+00
   1.756e+00   0.000e+00   0.000e+00
   1.741e+00   0.000e+00   0.000e+00
   1.728e+00   0.000e+00   0.000e+00
   1.717e+00   0.000e+00   0.000e+00
   1.708e+00   0.000e+00   0.000e+00
   1.701e+00   0.000e+00   0.000e+00
   1.696e+00   0.000e+00   0.000e+00
   1.694e+00   0.000e+00   0.000e+00
   1.694e+00   0.000e+00   0.000e+00
   1.696e+00   0.000e+00   0.000e+00
   1.701e+00   0.000e+00   0.000e+00
   1.708e+00   0.000e+00   0.000e+00
   1.717e+00   0.000e+00   0.000e+00
   1.728e+00   0.000e+00   0.000e+00
   1.741e+00   0.000e+00   0.000e+00
   1.756e+00   0.000e+00   0.000e+00
   1.773e+00   0.000e+00   0.000e+00
   1.791e+00   0.000e+00   0.000e+00
   1.810e+00   0.000e+00   0.000e+00
   1.830e+00   0.000e+00   0.000e+00
   1.851e+00   0.000e+00   0.000e+00
   1.873e+00   0.000e+00   0.000e+00
   1.896e+00   0.000e+00   0.000e+00
   1.919e+00   0.000e+00   0.000e+00
   1.943e+00   0.000e+00   0.000e+00
   1.967e+00   0.000e+00   0.000e+00
   1.991e+00   0.000e+00   0.000e+00
   2.015e+00   0.000e+00   0.000e+00
   2.040e+00   0.000e+00   0.000e+00
   2.015e+00   0.000e+00   0.000e+00
   1.990e+00   0.000e+00   0.000e+00
   1.964e+00   0.000e+00   0.000e+00
   1.939e+00   0.000e+00   0.000e+00
   1.913e+00   0.000e+00   0.000e+00
   1.888e+00   0.000e+00   0.000e+00
   1.863e+00   0.000e+00   0.000e+00
   1.839e+00   0.000e+00   0.000e+00
   1.815e+00   0.000e+00   0.000e+00
   1.792e+00   0.000e+00   0.000e+00
   1.770e+00   0.000e+00   0.000e+00
   1.750e+00   0.000e+00   0.000e+00
   1.730e+00   0.000e+00   0.000e+00
   1.712e+00   0.000e+00   0.000e+00
   1.696e+00   0.000e+00   0.000e+00
   1.681e+00   0.000e+00   0.000e+00
   1.669e+00   0.000e+00   0.000e+00
   1.659e+00   0.000e+00   0.000e+00
   1.651e+00   0.000e+00   0.000e+00
   1.646e+00   0.000e+00   0.000e+00
   1.643e+00   0.000e+00   0.000e+00
   1.643e+00   0.000e+00   0.000e+00
   1.646e+00   0.000e+00   0.000e+00
   1.651e+00   0.000e+00   0.000e+00
   1.659e+00   0.000e+00   0.000e+00
   1.669e+00   0.000e+00   0.000e+00
   1.681e+00   0.000e+00   0.000e+00
   1.696e+00   0.000e+00   0.000e+00
   1.712e+00   0.000e+00   0.000e+00
   1.730e+00   0.000e+00   0.000e+00
   1.750e+00   0.000e+00   0.000e+00
   1.770e+00   0.000e+00   0.000e+00
   1.792e+00   0.000e+00   0.000e+00
   1.815e+00   0.000e+00   0.000e+00
   1.839e+00   0.000e+00   0.000e+00
   1.863e+00   0.000e+00   0.000e+00
   1.888e+00   0.000e+00   0.000e+00
   1.913e+00   0.000e+00   0.000e+00
   1.939e+00   0.000e+00   0.000e+00
   1.964e+00   0.000e+00   0.000e+00
   1.990e+00   0.000e+00   0.000e+00
   2.015e+00   0.000e+00   0.000e+00
   1.991e+00   0.000e+00   0.000e+00
   1.964e+00   0.000e+00   0.000e+00
   1.937e+00   0.000e+00   0.000e+00
   1.910e+00   0.000e+00   0.000e+00
   1.883e+00   0.000e+00   0.000e+00
   1.856e+00   0.000e+00   0.000e+00
   1.830e+00   0.000e+00   0.000e+00
   1.804e+00   0.000e+00   0.000e+00
   1.778e+00   0.000e+00   0.000e+00
   1.754e+00   0.000e+00   0.000e+00
   1.730e+00   0.000e+00   0.000e+00
   1.707e+00   0.000e+00   0.000e+00
   1.686e+00   0.000e+00   0.000e+00
   1.667e+00   0.000e+00   0.000e+00
   1.649e+00   0.000e+00   0.000e+00
   1.633e+00   0.000e+00   0.000e+00
   1.619e+00   0.000e+00   0.000e+00
   1.608e+00   0.000e+00   0.000e+00
   1.600e+00   0.000e+00   0.000e+00
   1.594e+00   0.000e+00   0.000e+00
   1.591e+00   0.000e+00   0.000e+00
   1.591e+00   0.000e+00   0.000e+00
   1.594e+00   0.000e+00   0.000e+00
   1.600e+00   0.000e+00   0.000e+00
   1.608e+00   0.000e+00   0.000e+00
   1.619e+00   0.000e+00   0.000e+00
   1.633e+00   0.000e+00   0.000e+00
   1.649e+00   0.000e+00   0.000e+00
   1.667e+00   0.000e+00   0.000e+00
   1.686e+00   0.000e+00   0.000e+00
   1.707e+00   0.000e+00   0.000e+00
   1.730e+00   0.000e+00   0.000e+00
   1.754e+00   0.000e+00   0.000e+00
   1.778e+00   0.000e+00   0.000e+00
   1.804e+00   0.000e+00   0.000e+00
   1.830e+00   0.000e+00   0.000e+00
   1.856e+00   0.000e+00   0.000e+00
   1.883e+00   0.000e+00   0.000e+00
   1.910e+00   0.000e+00   0.000e+00
   1.937e+00   0.000e+00   0.000e+00
   1.964e+00   0.000e+00   0.000e+00
   1.991e+00   0.000e+00   0.000e+00
   1.967e+00   0.000e+00   0.000e+00
   1.939e+00   0.000e+00   0.000e+00
   1.910e+00   0.000e+00   0.000e+00
   1.881e+00   0.000e+00   0.000e+00
   1.853e+00   0.000e+00   0.000e+00
   1.824e+00   0.000e+00   0.000e+00
   1.796e+00   0.000e+00   0.000e+00
   1.768e+00   0.000e+00   0.000e+00
   1.741e+00   0.000e+00   0.000e+00
   1.714e+00   0.000e+00   0.000e+00
   1.689e+00   0.000e+00   0.000e+00
   1.664e+00   0.000e+00   0.000e+00
   1.641e+00   0.000e+00   0.000e+00
   1.619e+00   0.000e+00   0.000e+00
   1.600e+00   0.000e+00   0.000e+00
   1.582e+00   0.000e+00   0.000e+00
   1.567e+00   0.000e+00   0.000e+00
   1.555e+00   0.000e+00   0.000e+00
   1.545e+00   0.000e+00   0.000e+00
   1.539e+00   0.000e+00   0.000e+00
   1.535e+00   0.000e+00   0.000e+00
   1.535e+00   0.000e+00   0.000e+00
   1.539e+00   0.000e+00   0.000e+00
   1.545e+00   0.000e+00   0.000e+00
   1.555e+00   0.000e+00   0.000e+00
   1.567e+00   0.000e+00   0.000e+00
   1.582e+00   0.000e+00   0.000e+00
   1.600e+00   0.000e+00   0.000e+00
   1.619e+00   0.000e+00   0.000e+00
   1.641e+00   0.000e+00   0.000e+00
   1.664e+00   0.000e+00   0.000e+00
   1.689e+00   0.000e+00   0.000e+00
   1.714e+00   0.000e+00   0.000e+00
   1.741e+00   0.000e+00   0.000e+00
   1.768e+00   0.000e+00   0.000e+00
   1.796e+00   0.000e+00   0.000e+00
   1.824e+00   0.000e+00   0.000e+00
   1.853e+00   0.000e+00   0.000e+00
   1.881e+00   0.000e+00   0.000e+00
   1.910e+00   0.000e+00   0.000e+00
   1.939e+00   0.000e+00   0.000e+00
   1.967e+00   0.000e+00   0.000e+00
   1.943e+00   0.000e+00   0.000e+00
   1.913e+00   0.000e+00   0.000e+00
   1.883e+00   0.000e+00   0.000e+00
   1.853e+00   0.000e+00   0.000e+00
   1.823e+00   0.000e+00   0.000e+00
   1.792e+00   0.000e+00   0.000e+00
   1.762e+00   0.000e+00   0.000e+00
   1.732e+00   0.000e+00   0.000e+00
   1.703e+00   0.000e+00   0.000e+00
   1.674e+00   0.000e+00   0.000e+00
   1.646e+00   0.000e+00   0.000e+00
   1.619e+00   0.000e+00   0.000e+00
   1.594e+00   0.000e+00   0.000e+00
   1.570e+00   0.000e+00   0.000e+00
   1.548e+00   0.000e+00   0.000e+00
   1.529e+00   0.000e+00   0.000e+00
   1.512e+00   0.000e+00   0.000e+00
   1.498e+00   0.000e+00   0.000e+00
   1.488e+00   0.000e+00   0.000e+00
   1.480e+00   0.000e+00   0.000e+00
   1.477e+00   0.000e+00   0.000e+00
   1.477e+00   0.000e+00   0.000e+00
   1.480e+00   0.000e+00   0.000e+00
   1.488e+00   0.000e+00   0.000e+00
   1.498e+00   0.000e+00   0.000e+00
   1.512e+00   0.000e+00   0.000e+00
   1.529e+00   0.000e+00   0.000e+00
   1.548e+00   0.000e+00   0.000e+00
   1.570e+00   0.000e+00   0.000e+00
   1.594e+00   0.000e+00   0.000e+00
   1.619e+00   0.000e+00   0.000e+00
   1.646e+00   0.000e+00   0.000e+00
   1.674e+00   0.000e+00   0.000e+00
   1.703e+00   0.000e+00   0.000e+00
   1.732e+00   0.000e+00   0.000e+00
   1.762e+00   0.000e+00   0.000e+00
   1.792e+00   0.000e+00   0.000e+00
   1.823e+00   0.000e+00   0.000e+00
   1.853e+00   0.000e+00   0.000e+00
   1.883e+00   0.000e+00   0.000e+00
   1.913e+00   0.000e+00   0.000e+00
   1.943e+00   0.000e+00   0.000e+00
   1.919e+00   0.000e+00   0.000e+00
   1.888e+00   0.000e+00   0.000e+00
   1.856e+00   0.000e+00   0.000e+00
   1.824e+00   0.000e+00   0.000e+00
   1.792e+00   0.000e+00   0.000e+00
   1.760e+00   0.000e+00   0.000e+00
   1.728e+00   0.000e+00   0.000e+00
   1.696e+00   0.000e+00   0.000e+00
   1.664e+00   0.000e+00   0.000e+00
   1.633e+00   0.000e+00   0.000e+00
   1.602e+00   0.000e+00   0.000e+00
   1.573e+00   0.000e+00   0.000e+00
   1.545e+00   0.000e+00   0.000e+00
   1.519e+00   0.000e+00   0.000e+00
   1.495e+00   0.000e+00   0.000e+00
   1.473e+00   0.000e+00   0.000e+00
   1.454e+00   0.000e+00   0.000e+00
   1.439e+00   0.000e+00   0.000e+00
   1.427e+00   0.000e+00   0.000e+00
   1.419e+00   0.000e+00   0.000e+00
   1.414e+00   0.000e+00   0.000e+00
   1.414e+00   0.000e+00   0.000e+00
   1.419e+00   0.000e+00   0.000e+00
   1.427e+00   0.000e+00   0.000e+00
   1.439e+00   0.000e+00   0.000e+00
   1.454e+00   0.000e+00   0.000e+00
   1.473e+00   0.000e+00   0.000e+00
   1.495e+00   0.000e+00   0.000e+00
   1.519e+00   0.000e+00   0.000e+00
   1.545e+00   0.000e+00   0.000e+00
   1.573e+00   0.000e+00   0.000e+00
   1.602e+00   0.000e+00   0.000e+00
   1.633e+00   0.000e+00   0.000e+00
   1.664e+00   0.000e+00   0.000e+00
   1.696e+00   0.000e+00   0.000e+00
   1.728e+00   0.000e+00   0.000e+00
   1.760e+00   0.000e+00   0.000e+00
   1.792e+00   0.000e+00   0.000e+00
   1.824e+00   0.000e+00   0.000e+00
   1.856e+00   0.000e+00   0.000e+00
   1.888e+00   0.000e+00   0.000e+00
   1.919e+00   0.000e+00   0.000e+00
   1.896e+00   0.000e+00   0.000e+00
   1.863e+00   0.000e+00   0.000e+00
   1.830e+00   0.000e+00   0.000e+00
   1.796e+00   0.000e+00   0.000e+00
   1.762e+00   0.000e+00   0.000e+00
   1.728e+00   0.000e+00   0.000e+00
   1.693e+00   0.000e+00   0.000e+00
   1.659e+00   0.000e+00   0.000e+00
   1.625e+00   0.000e+00   0.000e+00
   1.591e+00   0.000e+00   0.000e+00
   1.558e+00   0.000e+00   0.000e+00
   1.526e+00   0.000e+00   0.000e+00
   1.495e+00   0.000e+00   0.000e+00
   1.466e+00   0.000e+00   0.000e+00
   1.439e+00   0.000e+00   0.000e+00
   1.414e+00   0.000e+00   0.000e+00
   1.393e+00   0.000e+00   0.000e+00
   1.376e+00   0.000e+00   0.000e+00
   1.362e+00   0.000e+00   0.000e+00
   1.353e+00   0.000e+00   0.000e+00
   1.348e+00   0.000e+00   0.000e+00
   1.348e+00   0.000e+00   0.000e+00
   1.353e+00   0.000e+00   0.000e+00
   1.362e+00   0.000e+00   0.000e+00
   1.376e+00   0.000e+00   0.000e+00
   1.393e+00   0.000e+00   0.000e+00
   1.414e+00   0.000e+00   0.000e+00
   1.439e+00   0.000e+00   0.000e+00
   1.466e+00   0.000e+00   0.000e+00
   1.495e+00   0.000e+00   0.000e+00
   1.526e+00   0.000e+00   0.000e+00
   1.558e+00   0.000e+00   0.000e+00
   1.591e+00   0.000e+00   0.000e+00
   1.625e+00   0.000e+00   0.000e+00
   1.659e+00   0.000e+00   0.000e+00
   1.693e+00   0.000e+00   0.000e+00
   1.728e+00   0.000e+00   0.000e+00
   1.762e+00   0.000e+00   0.000e+00
   1.796e+00   0.000e+00   0.000e+00
   1.830e+00   0.000e+00   0.000e+00
   1.863e+00   0.000e+00   0.000e+00
   1.896e+00   0.000e+00   0.000e+00
   1.873e+00   0.000e+00   0.000e+00
   1.839e+00   0.000e+00   0.000e+00
   1.804e+00   0.000e+00   0.000e+00
   1.768e+00   0.000e+00   0.000e+00
   1.732e+00   0.000e+00   0.000e+00
   1.696e+00   0.000e+00   0.000e+00
   1.659e+00   0.000e+00   0.000e+00
   1.622e+00   0.000e+00   0.000e+00
   1.585e+00   0.000e+00   0.000e+00
   1.548e+00   0.000e+00   0.000e+00
   1.512e+00   0.000e+00   0.000e+00
   1.477e+00   0.000e+00   0.000e+00
   1.443e+00   0.000e+00   0.000e+00
   1.410e+00   0.000e+00   0.000e+00
   1.380e+00   0.000e+00   0.000e+00
   1.353e+00   0.000e+00   0.000e+00
   1.329e+00   0.000e+00   0.000e+00
   1.308e+00   0.000e+00   0.000e+00
   1.293e+00   0.000e+00   0.000e+00
   1.282e+00   0.000e+00   0.000e+00
   1.277e+00   0.000e+00   0.000e+00
   1.277e+00   0.000e+00   0.000e+00
   1.282e+00   0.000e+00   0.000e+00
   1.293e+00   0.000e+00   0.000e+00
   1.308e+00   0.000e+00   0.000e+00
   1.329e+00   0.000e+00   0.000e+00
   1.353e+00   0.000e+00   0.000e+00
   1.380e+00   0.000e+00   0.000e+00
   1.410e+00   0.000e+00   0.000e+00
   1.443e+00   0.000e+00   0.000e+00
   1.477e+00   0.000e+00   0.000e+00
   1.512e+00   0.000e+00   0.000e+00
   1.548e+00   0.000e+00   0.000e+00
   1.585e+00   0.000e+00   0.000e+00
   1.622e+00   0.000e+00   0.000e+00
   1.659e+00   0.000e+00   0.000e+00
   1.696e+00   0.000e+00   0.000e+00
   1.732e+00   0.000e+00   0.000e+00
   1.768e+00   0.000e+00   0.000e+00
   1.804e+00   0.000e+00   0.000e+00
   1.839e+00   0.000e+00   0.000e+00
   1.873e+00   0.000e+00   0.000e+00
   1.851e+00   0.000e+00   0.000e+00
   1.815e+00   0.000e+00   0.000e+00
   1.778e+00   0.000e+00   0.000e+00
   1.741e+00   0.000e+00   0.000e+00
   1.703e+00   0.000e+00   0.000e+00
   1.664e+00   0.000e+00   0.000e+00
   1.625e+00   0.000e+00   0.000e+00
   1.585e+00   0.000e+00   0.000e+00
   1.545e+00   0.000e+00   0.000e+00
   1.505e+00   0.000e+00   0.000e+00
   1.466e+00   0.000e+00   0.000e+00
   1.427e+00   0.000e+00   0.000e+00
   1.389e+00   0.000e+00   0.000e+00
   1.353e+00   0.000e+00   0.000e+00
   1.319e+00   0.000e+00   0.000e+00
   1.287e+00   0.000e+00   0.000e+00
   1.260e+00   0.000e+00   0.000e+00
   1.237e+00   0.000e+00   0.000e+00
   1.219e+00   0.000e+00   0.000e+00
   1.206e+00   0.000e+00   0.000e+00
   1.200e+00   0.000e+00   0.000e+00
   1.200e+00   0.000e+00   0.000e+00
   1.206e+00   0.000e+00   0.000e+00
   1.219e+00   0.000e+00   0.000e+00
   1.237e+00   0.000e+00   0.000e+00
   1.260e+00   0.000e+00   0.000e+00
   1.287e+00   0.000e+00   0.000e+00
   1.319e+00   0.000e+00   0.000e+00
   1.353e+00   0.000e+00   0.000e+00
   1.389e+00   0.000e+00   0.000e+00
   1.427e+00   0.000e+00   0.000e+00
   1.466e+00   0.000e+00   0.000e+00
   1.505e+00   0.000e+00   0.000e+00
   1.545e+00   0.000e+00   0.000e+00
   1.585e+00   0.000e+00   0.000e+00
   1.625e+00   0.000e+00   0.000e+00
   1.664e+00   0.000e+00   0.000e+00
   1.703e+00   0.000e+00   0.000e+00
   1.741e+00   0.000e+00   0.000e+00
   1.778e+00   0.000e+00   0.000e+00
   1.815e+00   0.000e+00   0.000e+00
   1.851e+00   0.000e+00   0.000e+00
   1.830e+00   0.000e+00   0.000e+00
   1.792e+00   0.000e+00   0.000e+00
   1.754e+00   0.000e+00   0.000e+00
   1.714e+00   0.000e+00   0.000e+00
   1.674e+00   0.000e+00   0.000e+00
   1.633e+00   0.000e+00   0.000e+00
   1.591e+00   0.000e+00   0.000e+00
   1.548e+00   0.000e+00   0.000e+00
   1.505e+00   0.000e+00   0.000e+00
   1.462e+00   0.000e+00   0.000e+00
   1.418e+00   0.000e+00   0.000e+00
   1.375e+00   0.000e+00   0.000e+00
   1.333e+00   0.000e+00   0.000e+00
   1.293e+00   0.000e+00   0.000e+00
   1.254e+00   0.000e+00   0.000e+00
   1.219e+00   0.000e+00   0.000e+00
   1.187e+00   0.000e+00   0.000e+00
   1.160e+00   0.000e+00   0.000e+00
   1.139e+00   0.000e+00   0.000e+00
   1.124e+00   0.000e+00   0.000e+00
   1.117e+00   0.000e+00   0.000e+00
   1.117e+00   0.000e+00   0.000e+00
   1.124e+00   0.000e+00   0.000e+00
   1.139e+00   0.000e+00   0.000e+00
   1.160e+00   0.000e+00   0.000e+00
   1.187e+00   0.000e+00   0.000e+00
   1.219e+00   0.000e+00   0.000e+00
   1.254e+00   0.000e+00   0.000e+00
   1.293e+00   0.000e+00   0.000e+00
   1.333e+00   0.000e+00   0.000e+00
   1.375e+00   0.000e+00   0.000e+00
   1.418e+00   0.000e+00   0.000e+00
   1.462e+00   0.000e+00   0.000e+00
   1.505e+00   0.000e+00   0.000e+00
   1.548e+00   0.000e+00   0.000e+00
   1.591e+00   0.000e+00   0.000e+00
   1.633e+00   0.000e+00   0.000e+00
   1.674e+00   0.000e+00   0.000e+00
   1.714e+00   0.000e+00   0.000e+00
   1.754e+00   0.000e+00   0.000e+00
   1.792e+00   0.000e+00   0.000e+00
   1.830e+00   0.000e+00   0.000e+00
   1.810e+00   0.000e+00   0.000e+00
   1.770e+00   0.000e+00   0.000e+00
   1.730e+00   0.000e+00   0.000e+00
   1.689e+00   0.000e+00   0.000e+00
   1.646e+00   0.000e+00   0.000e+00
   1.602e+00   0.000e+00   0.000e+00
   1.558e+00   0.000e+00   0.000e+00
   1.512e+00   0.000e+00   0.000e+00
   1.466e+00   0.000e+00   0.000e+00
   1.418e+00   0.000e+00   0.000e+00
   1.371e+00   0.000e+00   0.000e+00
   1.323e+00   0.000e+00   0.000e+00
   1.277e+00   0.000e+00   0.000e+00
   1.231e+00   0.000e+00   0.000e+00
   1.187e+00   0.000e+00   0.000e+00
   1.146e+00   0.000e+00   0.000e+00
   1.109e+00   0.000e+00   0.000e+00
   1.078e+00   0.000e+00   0.000e+00
   1.052e+00   0.000e+00   0.000e+00
   1.035e+00   0.000e+00   0.000e+00
   1.026e+00   0.000e+00   0.000e+00
   1.026e+00   0.000e+00   0.000e+00
   1.035e+00   0.000e+00   0.000e+00
   1.052e+00   0.000e+00   0.000e+00
   1.078e+00   0.000e+00   0.000e+00
   1.109e+00   0.000e+00   0.000e+00
   1.146e+00   0.000e+00   0.000e+00
   1.187e+00   0.000e+00   0.000e+00
   1.231e+00   0.000e+00   0.000e+00
   1.277e+00   0.000e+00   0.000e+00
   1.323e+00   0.000e+00   0.000e+00
   1.371e+00   0.000e+00   0.000e+00
   1.418e+00   0.000e+00   0.000e+00
   1.466e+00   0.000e+00   0.000e+00
   1.512e+00   0.000e+00   0.000e+00
   1.558e+00   0.000e+00   0.000e+00
   1.602e+00   0.000e+00   0.000e+00
   1.646e+00   0.000e+00   0.000e+00
   1.689e+00   0.000e+00   0.000e+00
   1.730e+00   0.000e+00   0.000e+00
   1.770e+00   0.000e+00   0.000e+00
   1.810e+00   0.000e+00   0.000e+00
   1.791e+00   0.000e+00   0.000e+00
   1.750e+00   0.000e+00   0.000e+00
   1.707e+00   0.000e+00   0.000e+00
   1.664e+00   0.000e+00   0.000e+00
   1.619e+00   0.000e+00   0.000e+00
   1.573e+00   0.000e+00   0.000e+00
   1.526e+00   0.000e+00   0.000e+00
   1.477e+00   0.000e+00   0.000e+00
   1.427e+00   0.000e+00   0.000e+00
   1.375e+00   0.000e+00   0.000e+00
   1.323e+00   0.000e+00   0.000e+00
   1.271e+00   0.000e+00   0.000e+00
   1.219e+00   0.000e+00   0.000e+00
   1.167e+00   0.000e+00   0.000e+00
   1.117e+00   0.000e+00   0.000e+00
   1.069e+00   0.000e+00   0.000e+00
   1.026e+00   0.000e+00   0.000e+00
   9.998e-01   0.000e+00   0.000e+00
   9.994e-01   0.000e+00   0.000e+00
   9.995e-01   0.000e+00   0.000e+00
   9.995e-01   0.000e+00   0.000e+00
   9.995e-01   0.000e+00   0.000e+00
   9.995e-01   0.000e+00   0.000e+00
   9.994e-01   0.000e+00   0.000e+00
   9.998e-01   0.000e+00   0.000e+00
   1.026e+00   0.000e+00   0.000e+00
   1.069e+00   0.000e+00   0.000e+00
   1.117e+00   0.000e+00   0.000e+00
   1.167e+00   0.000e+00   0.000e+00
   1.219e+00   0.000e+00   0.000e+00
   1.271e+00   0.000e+00   0.000e+00
   1.323e+00   0.000e+00   0.000e+00
   1.375e+00   0.000e+00   0.000e+00
   1.427e+00   0.000e+00   0.000e+00
   1.477e+00   0.000e+00   0.000e+00
   1.526e+00   0.000e+00   0.000e+00
   1.573e+00   0.000e+00   0.000e+00
   1.619e+00   0.000e+00   0.000e+00
   1.664e+00   0.000e+00   0.000e+00
   1.707e+00   0.000e+00   0.000e+00
   1.750e+00   0.000e+00   0.000e+00
   1.791e+00   0.000e+00   0.000e+00
   1.773e+00   0.000e+00   0.000e+00
   1.730e+00   0.000e+00   0.000e+00
   1.686e+00   0.000e+00   0.000e+00
   1.641e+00   0.000e+00   0.000e+00
   1.594e+00   0.000e+00   0.000e+00
   1.545e+00   0.000e+00   0.000e+00
   1.495e+00   0.000e+00   0.000e+00
   1.443e+00   0.000e+00   0.000e+00
   1.389e+00   0.000e+00   0.000e+00
   1.333e+00   0.000e+00   0.000e+00
   1.277e+00   0.000e+00   0.000e+00
   1.219e+00   0.000e+00   0.000e+00
   1.160e+00   0.000e+00   0.000e+00
   1.102e+00   0.000e+00   0.000e+00
   1.044e+00   0.000e+00   0.000e+00
   9.999e-01   0.000e+00   0.000e+00
   9.995e-01   0.000e+00   0.000e+00
   9.996e-01   0.000e+00   0.000e+00
   9.996e-01   0.000e+00   0.000e+00
   9.995e-01   0.000e+00   0.000e+00
   9.995e-01   0.000e+00   0.000e+00
   9.995e-01   0.000e+00   0.000e+00
   9.995e-01   0.000e+00   0.000e+00
   9.996e-01   0.000e+00   0.000e+00
   9.996e-01   0.000e+00   0.000e+00
   9.995e-01   0.000e+00   0.000e+00
   9.999e-01   0.000e+00   0.000e+00
   1.044e+00   0.000e+00   0.000e+00
   1.102e+00   0.000e+00   0.000e+00
   1.160e+00   0.000e+00   0.000e+00
   1.219e+00   0.000e+00   0.000e+00
   1.277e+00   0.000e+00   0.000e+00
   1.333e+00   0.000e+00   0.000e+00
   1.389e+00   0.000e+00   0.000e+00
   1.443e+00   0.000e+00   0.000e+00
   1.495e+00   0.000e+00   0.000e+00
   1.545e+00   0.000e+00   0.000e+00
   1.594e+00   0.000e+00   0.000e+00
   1.641e+00   0.000e+00   0.000e+00
   1.686e+00   0.000e+00   0.000e+00
   1.730e+00   0.000e+00   0.000e+00
   1.773e+00   0.000e+00   0.000e+00
   1.756e+00   0.000e+00   0.000e+00
   1.712e+00   0.000e+00   0.000e+00
   1.667e+00   0.000e+00   0.000e+00
   1.619e+00   0.000e+00   0.000e+00
   1.570e+00   0.000e+00   0.000e+00
   1.519e+00   0.000e+00   0.000e+00
   1.466e+00   0.000e+00   0.000e+00
   1.410e+00   0.000e+00   0.000e+00
   1.353e+00   0.000e+00   0.000e+00
   1.293e+00   0.000e+00   0.000e+00
   1.231e+00   0.000e+00   0.000e+00
   1.167e+00   0.000e+00   0.000e+00
   1.102e+00   0.000e+00   0.000e+00
   1.035e+00   0.000e+00   0.000e+00
   9.996e-01   0.000e+00   0.000e+00
   9.996e-01   0.000e+00   0.000e+00
   9.996e-01   0.000e+00   0.000e+00
   9.996e-01   0.000e+00   0.000e+00
   9.996e-01   0.000e+00   0.000e+00
   9.995e-01   0.000e+00   0.000e+00
   9.995e-01   0.000e+00   0.000e+00
   9.995e-01   0.000e+00   0.000e+00
   9.995e-01   0.000e+00   0.000e+00
   9.996e-01   0.000e+00   0.000e+00
   9.996e-01   0.000e+00   0.000e+00
   9.996e-01   0.000e+00   0.000e+00
   9.996e-01   0.000e+00   0.000e+00
   9.996e-01   0.000e+00   0.000e+00
   1.035e+00   0.000e+00   0.000e+00
   1.102e+00   0.000e+00   0.000e+00
   1.167e+00   0.000e+00   0.000e+00
   1.231e+00   0.000e+00   0.000e+00
   1.293e+00   0.000e+00   0.000e+00
   1.353e+00   0.000e+00   0.000e+00
   1.410e+00   0.000e+00   0.000e+00
   1.466e+00   0.000e+00   0.000e+00
   1.519e+00   0.000e+00   0.000e+00
   1.570e+00   0.000e+00   0.000e+00
   1.619e+00   0.000e+00   0.000e+00
   1.667e+00   0.000e+00   0.000e+00
   1.712e+00   0.000e+00   0.000e+00
   1.756e+00   0.000e+00   0.000e+00
   1.741e+00   0.000e+00   0.000e+00
   1.696e+00   0.000e+00   0.000e+00
   1.649e+00   0.000e+00   0.000e+00
   1.600e+00   0.000e+00   0.000e+00
   1.548e+00   0.000e+00   0.000e+00
   1.495e+00   0.000e+00   0.000e+00
   1.439e+00   0.000e+00   0.000e+00
   1.380e+00   0.000e+00   0.000e+00
   1.319e+00   0.000e+00   0.000e+00
   1.254e+00   0.000e+00   0.000e+00
   1.187e+00   0.000e+00   0.000e+00
   1.117e+00   0.000e+00   0.000e+00
   1.044e+00   0.000e+00   0.000e+00
   9.996e-01   0.000e+00   0.000e+00
   9.996e-01   0.000e+00   0.000e+00
   9.996e-01   0.000e+00   0.000e+00
   9.996e-01   0.000e+00   0.000e+00
   9.996e-01   0.000e+00   0.000e+00
   9.996e-01   0.000e+00   0.000e+00
   9.996e-01   0.000e+00   0.000e+00
   9.995e-01   0.000e+00   0.000e+00
   9.995e-01   0.000e+00   0.000e+00
   9.996e-01   0.000e+00   0.000e+00
   9.996e-01   0.000e+00   0.000e+00
   9.996e-01   0.000e+00   0.000e+00
   9.996e-01   0.000e+00   0.000e+00
   9.996e-01   0.000e+00   0.000e+00
   9.996e-01   0.000e+00   0.000e+00
   9.996e-01   0.000e+00   0.000e+00
   1.044e+00   0.000e+00   0.000e+00
   1.117e+00   0.000e+00   0.000e+00
   1.187e+00   0.000e+00   0.000e+00
   1.254e+00   0.000e+00   0.000e+00
   1.319e+00   0.000e+00   0.000e+00
   1.380e+00   0.000e+00   0.000e+00
   1.439e+00   0.000e+00   0.000e+00
   1.495e+00   0.000e+00   0.000e+00
   1.548e+00   0.000e+00   0.000e+00
   1.600e+00   0.000e+00   0.000e+00
   1.649e+00   0.000e+00   0.000e+00
   1.696e+00   0.000e+00   0.000e+00
   1.741e+00   0.000e+00   0.000e+00
   1.728e+00   0.000e+00   0.000e+00
   1.681e+00   0.000e+00   0.000e+00
   1.633e+00   0.000e+00   0.000e+00
   1.582e+00   0.000e+00   0.000e+00
   1.529e+00   0.000e+00   0.000e+00
   1.473e+00   0.000e+00   0.000e+00
   1.414e+00   0.000e+00   0.000e+00
   1.353e+00   0.000e+00   0.000e+00
   1.287e+00   0.000e+00   0.000e+00
   1.219e+00   0.000e+00   0.000e+00
   1.146e+00   0.000e+00   0.000e+00
   1.069e+00   0.000e+00   0.000e+00
   9.999e-01   0.000e+00   0.000e+00
   9.996e-01   0.000e+00   0.000e+00
   9.996e-01   0.000e+00   0.000e+00
   9.996e-01   0.000e+00   0.000e+00
   9.996e-01   0.000e+00   0.000e+00
   9.996e-01   0.000e+00   0.000e+00
   9.996e-01   0.000e+00   0.000e+00
   9.996e-01   0.000e+00   0.000e+00
   9.996e-01   0.000e+00   0.000e+00
   9.996e-01   0.000e+00   0.000e+00
   9.996e-01   0.000e+00   0.000e+00
   9.996e-01   0.000e+00   0.000e+00
   9.996e-01   0.000e+00   0.000e+00
   9.996e-01   0.000e+00   0.000e+00
   9.996e-01   0.000e+00   0.000e+00
   9.996e-01   0.000e+00   0.000e+00
   9.996e-01   0.000e+00   0.000e+00
   9.999e-01   0.000e+00   0.000e+00
   1.069e+00   0.000e+00   0.000e+00
   1.146e+00   0.000e+00   0.000e+00
   1.219e+00   0.000e+00   0.000e+00
   1.287e+00   0.000e+00   0.000e+00
   1.353e+00   0.000e+00   0.000e+00
   1.414e+00   0.000e+00   0.000e+00
   1.473e+00   0.000e+00   0.000e+00
   1.529e+00   0.000e+00   0.000e+00
   1.582e+00   0.000e+00   0.000e+00
   1.633e+00   0.000e+00   0.000e+00
   1.681e+00   0.000e+00   0.000e+00
   1.728e+00   0.000e+00   0.000e+00
   1.717e+00   0.000e+00   0.000e+00
   1.669e+00   0.000e+00   0.000e+00
   1.619e+00   0.000e+00   0.000e+00
   1.567e+00   0.000e+00   0.000e+00
   1.512e+00   0.000e+00   0.000e+00
   1.454e+00   0.000e+00   0.000e+00
   1.393e+00   0.000e+00   0.000e+00
   1.329e+00   0.000e+00   0.000e+00
   1.260e+00   0.000e+00   0.000e+00
   1.187e+00   0.000e+00   0.000e+00
   1.109e+00   0.000e+00   0.000e+00
   1.026e+00   0.000e+00   0.000e+00
   9.995e-01   0.000e+00   0.000e+00
   9.996e-01   0.000e+00   0.000e+00
   9.996e-01   0.000e+00   0.000e+00
   9.996e-01   0.000e+00   0.000e+00
   9.996e-01   0.000e+00   0.000e+00
   9.996e-01   0.000e+00   0.000e+00
   9.996e-01   0.000e+00   0.000e+00
   9.996e-01   0.000e+00   0.000e+00
   9.996e-01   0.000e+00   0.000e+00
   9.996e-01   0.000e+00   0.000e+00
   9.996e-01   0.000e+00   0.000e+00
   9.996e-01   0.000e+00   0.000e+00
   9.996e-01   0.000e+00   0.000e+00
   9.996e-01   0.000e+00   0.000e+00
   9.996e-01   0.000e+00   0.000e+00
   9.996e-01   0.000e+00   0.000e+00
   9.996e-01   0.000e+00   0.000e+00
   9.995e-01   0.000e+00   0.000e+00
   1.026e+00   0.000e+00   0.000e+00
   1.109e+00   0.000e+00   0.000e+00
   1.187e+00   0.000e+00   0.000e+00
   1.260e+00   0.000e+00   0.000e+00
   1.329e+00   0.000e+00   0.000e+00
   1.393e+00   0.000e+00   0.000e+00
   1.454e+00   0.000e+00   0.000e+00
   1.512e+00   0.000e+00   0.000e+00
   1.567e+00   0.000e+00   0.000e+00
   1.619e+00   0.000e+00   0.000e+00
   1.669e+00   0.000e+00   0.000e+00
   1.717e+00   0.000e+00   0.000e+00
   1.708e+00   0.000e+00   0.000e+00
   1.659e+00   0.000e+00   0.000e+00
   1.608e+00   0.000e+00   0.000e+00
   1.555e+00   0.000e+00   0.000e+00
   1.498e+00   0.000e+00   0.000e+00
   1.439e+00   0.000e+00   0.000e+00
   1.376e+00   0.000e+00   0.000e+00
   1.308e+00   0.000e+00   0.000e+00
   1.237e+00   0.000e+00   0.000e+00
   1.160e+00   0.000e+00   0.000e+00
   1.078e+00   0.000e+00   0.000e+00
   9.998e-01   0.000e+00   0.000e+00
   9.996e-01   0.000e+00   0.000e+00
   9.996e-01   0.000e+00   0.000e+00
   9.996e-01   0.000e+00   0.000e+00
   9.996e-01   0.000e+00   0.000e+00
   9.996e-01   0.000e+00   0.000e+00
   9.996e-01   0.000e+00   0.000e+00
   9.996e-01   0.000e+00   0.000e+00
   9.996e-01   0.000e+00   0.000e+00
   9.996e-01   0.000e+00   0.000e+00
   9.996e-01   0.000e+00   0.000e+00
   9.996e-01   0.000e+00   0.000e+00
   9.996e-01   0.000e+00   0.000e+00
   9.996e-01   0.000e+00   0.000e+00
   9.996e-01   0.000e+00   0.000e+00
   9.996e-01   0.000e+00   0.000e+00
   9.996e-01   0.000e+00   0.000e+00
   9.996e-01   0.000e+00   0.000e+00
   9.996e-01   0.000e+00   0.000e+00
   9.998e-01   0.000e+00   0.000e+00
   1.078e+00   0.000e+00   0.000e+00
   1.160e+00   0.000e+00   0.000e+00
   1.237e+00   0.000e+00   0.000e+00
   1.308e+00   0.000e+00   0.000e+00
   1.376e+00   0.000e+00   0.000e+00
   1.439e+00   0.000e+00   0.000e+00
   1.498e+00   0.000e+00   0.000e+00
   1.555e+00   0.000e+00   0.000e+00
   1.608e+00   0.000e+00   0.000e+00
   1.659e+00   0.000e+00   0.000e+00
   1.708e+00   0.000e+00   0.000e+00
   1.701e+00   0.000e+00   0.000e+00
   1.651e+00   0.000e+00   0.000e+00
   1.600e+00   0.000e+00   0.000e+00
   1.545e+00   0.000e+00   0.000e+00
   1.488e+00   0.000e+00   0.000e+00
   1.427e+00   0.000e+00   0.000e+00
   1.362e+00   0.000e+00   0.000e+00
   1.293e+00   0.000e+00   0.000e+00
   1.219e+00   0.000e+00   0.000e+00
   1.139e+00   0.000e+00   0.000e+00
   1.052e+00   0.000e+00   0.000e+00
   9.994e-01   0.000e+00   0.000e+00
   9.996e-01   0.000e+00   0.000e+00
   9.996e-01   0.000e+00   0.000e+00
   9.996e-01   0.000e+00   0.000e+00
   9.996e-01   0.000e+00   0.000e+00
   9.996e-01   0.000e+00   0.000e+00
   9.996e-01   0.000e+00   0.000e+00
   9.996e-01   0.000e+00   0.000e+00
   9.996e-01   0.000e+00   0.000e+00
   9.996e-01   0.000e+00   0.000e+00
   9.996e-01   0.000e+00   0.000e+00
   9.996e-01   0.000e+00   0.000e+00
   9.996e-01   0.000e+00   0.000e+00
   9.996e-01   0.000e+00   0.000e+00
   9.996e-01   0.000e+00   0.000e+00
   9.996e-01   0.000e+00   0.000e+00
   9.996e-01   0.000e+00   0.000e+00
   9.996e-01   0.000e+00   0.000e+00
   9.996e-01   0.000e+00   0.000e+00
   9.994e-01   0.000e+00   0.000e+00
   1.052e+00   0.000e+00   0.000e+00
   1.139e+00   0.000e+00   0.000e+00
   1.219e+00   0.000e+00   0.000e+00
   1.293e+00   0.000e+00   0.000e+00
   1.362e+00   0.000e+00   0.000e+00
   1.427e+00   0.000e+00   0.000e+00
   1.488e+00   0.000e+00   0.000e+00
   1.545e+00   0.000e+00   0.000e+00
   1.600e+00   0.000e+00   0.000e+00
   1.651e+00   0.000e+00   0.000e+00
   1.701e+00   0.000e+00   0.000e+00
   1.696e+00   0.000e+00   0.000e+00
   1.646e+00   0.000e+00   0.000e+00
   1.594e+00   0.000e+00   0.000e+00
   1.539e+00   0.000e+00   0.000e+00
   1.480e+00   0.000e+00   0.000e+00
   1.419e+00   0.000e+00   0.000e+00
   1.353e+00   0.000e+00   0.000e+00
   1.282e+00   0.000e+00   0.000e+00
   1.206e+00   0.000e+00   0.000e+00
   1.124e+00   0.000e+00   0.000e+00
   1.035e+00   0.000e+00   0.000e+00
   9.995e-01   0.000e+00   0.000e+00
   9.995e-01   0.000e+00   0.000e+00
   9.995e-01   0.000e+00   0.000e+00
   9.996e-01   0.000e+00   0.000e+00
   9.996e-01   0.000e+00   0.000e+00
   9.996e-01   0.000e+00   0.000e+00
   9.996e-01   0.000e+00   0.000e+00
   9.996e-01   0.000e+00   0.000e+00
   9.996e-01   0.000e+00   0.000e+00
   9.996e-01   0.000e+00   0.000e+00
   9.996e-01   0.000e+00   0.000e+00
   9.996e-01   0.000e+00   0.000e+00
   9.996e-01   0.000e+00   0.000e+00
   9.996e-01   0.000e+00   0.000e+00
   9.996e-01   0.000e+00   0.000e+00
   9.996e-01   0.000e+00   0.000e+00
   9.996e-01   0.000e+00   0.000e+00
   9.995e-01   0.000e+00   0.000e+00
   9.995e-01   0.000e+00   0.000e+00
   9.995e-01   0.000e+00   0.000e+00
   1.035e+00   0.000e+00   0.000e+00
   1.124e+00   0.000e+00   0.000e+00
   1.206e+00   0.000e+00   0.000e+00
   1.282e+00   0.000e+00   0.000e+00
   1.353e+00   0.000e+00   0.000e+00
   1.419e+00   0.000e+00   0.000e+00
   1.480e+00   0.000e+00   0.000e+00
   1.539e+00   0.000e+00   0.000e+00
   1.594e+00   0.000e+00   0.000e+00
   1.646e+00   0.000e+00   0.000e+00
   1.696e+00   0.000e+00   0.000e+00
   1.694e+00   0.000e+00   0.000e+00
   1.643e+00   0.000e+00   0.000e+00
   1.591e+00   0.000e+00   0.000e+00
   1.535e+00   0.000e+00   0.000e+00
   1.477e+00   0.000e+00   0.000e+00
   1.414e+00   0.000e+00   0.000e+00
   1.348e+00   0.000e+00   0.000e+00
   1.277e+00   0.000e+00   0.000e+00
   1.200e+00   0.000e+00   0.000e+00
   1.117e+00   0.000e+00   0.000e+00
   1.026e+00   0.000e+00   0.000e+00
   9.995e-01   0.000e+00   0.000e+00
   9.995e-01   0.000e+00   0.000e+00
   9.995e-01   0.000e+00   0.000e+00
   9.995e-01   0.000e+00   0.000e+00
   9.996e-01   0.000e+00   0.000e+00
   9.996e-01   0.000e+00   0.000e+00
   9.996e-01   0.000e+00   0.000e+00
   9.996e-01   0.000e+00   0.000e+00
   9.996e-01   0.000e+00   0.000e+00
   9.996e-01   0.000e+00   0.000e+00
   9.996e-01   0.000e+00   0.000e+00
   9.996e-01   0.000e+00   0.000e+00
   9.996e-01   0.000e+00   0.000e+00
   9.996e-01   0.000e+00   0.000e+00
   9.996e-01   0.000e+00   0.000e+00
   9.996e-01   0.000e+00   0.000e+00
   9.995e-01   0.000e+00   0.000e+00
   9.995e-01   0.000e+00   0.000e+00
   9.995e-01   0.000e+00   0.000e+00
   9.995e-01   0.000e+00   0.000e+00
   1.026e+00   0.000e+00   0.000e+00
   1.117e+00   0.000e+00   0.000e+00
   1.200e+00   0.000e+00   0.000e+00
   1.277e+00   0.000e+00   0.000e+00
   1.348e+00   0.000e+00   0.000e+00
   1.414e+00   0.000e+00   0.000e+00
   1.477e+00   0.000e+00   0.000e+00
   1.535e+00   0.000e+00   0.000e+00
   1.591e+00   0.000e+00   0.000e+00
   1.643e+00   0.000e+00   0.000e+00
   1.694e+00   0.000e+00   0.000e+00
   1.694e+00   0.000e+00   0.000e+00
   1.643e+00   0.000e+00   0.000e+00
   1.591e+00   0.000e+00   0.000e+00
   1.535e+00   0.000e+00   0.000e+00
   1.477e+00   0.000e+00   0.000e+00
   1.414e+00   0.000e+00   0.000e+00
   1.348e+00   0.000e+00   0.000e+00
   1.277e+00   0.000e+00   0.000e+00
   1.200e+00   0.000e+00   0.000e+00
   1.117e+00   0.000e+00   0.000e+00
   1.026e+00   0.000e+00   0.000e+00
   9.995e-01   0.000e+00   0.000e+00
   9.995e-01   0.000e+00   0.000e+00
   9.995e-01   0.000e+00   0.000e+00
   9.995e-01   0.000e+00   0.000e+00
   9.996e-01   0.000e+00   0.000e+00
   9.996e-01   0.000e+00   0.000e+00
   9.996e-01   0.000e+00   0.000e+00
   9.996e-01   0.000e+00   0.000e+00
   9.996e-01   0.000e+00   0.000e+00
   9.996e-01   0.000e+00   0.000e+00
   9.996e-01   0.000e+00   0.000e+00
   9.996e-01   0.000e+00   0.000e+00
   9.996e-01   0.000e+00   0.000e+00
   9.996e-01   0.000e+00   0.000e+00
   9.996e-01   0.000e+00   0.000e+00
   9.996e-01   0.000e+00   0.000e+00
   9.995e-01   0.000e+00   0.000e+00
   9.995e-01   0.000e+00   0.000e+00
   9.995e-01   0.000e+00   0.000e+00
   9.995e-01   0.000e+00   0.000e+00
   1.026e+00   0.000e+00   0.000e+00
   1.117e+00   0.000e+00   0.000e+00
   1.200e+00   0.000e+00   0.000e+00
   1.277e+00   0.000e+00   0.000e+00
   1.348e+00   0.000e+00   0.000e+00
   1.414e+00   0.000e+00   0.000e+00
   1.477e+00   0.000e+00   0.000e+00
   1.535e+00   0.000e+00   0.000e+00
   1.591e+00   0.000e+00   0.000e+00
   1.643e+00   0.000e+00   0.000e+00
   1.694e+00   0.000e+00   0.000e+00
   1.696e+00   0.000e+00   0.000e+00
   1.646e+00   0.000e+00   0.000e+00
   1.594e+00   0.000e+00   0.000e+00
   1.539e+00   0.000e+00   0.000e+00
   1.480e+00   0.000e+00   0.000e+00
   1.419e+00   0.000e+00   0.000e+00
   1.353e+00   0.000e+00   0.000e+00
   1.282e+00   0.000e+00   0.000e+00
   1.206e+00   0.000e+00   0.000e+00
   1.124e+00   0.000e+00   0.000e+00
   1.035e+00   0.000e+00   0.000e+00
   9.995e-01   0.000e+00   0.000e+00
   9.995e-01   0.000e+00   0.000e+00
   9.995e-01   0.000e+00   0.000e+00
   9.996e-01   0.000e+00   0.000e+00
   9.996e-01   0.000e+00   0.000e+00
   9.996e-01   0.000e+00   0.000e+00
   9.996e-01   0.000e+00   0.000e+00
   9.996e-01   0.000e+00   0.000e+00
   9.996e-01   0.000e+00   0.000e+00
   9.996e-01   0.000e+00   0.000e+00
   9.996e-01   0.000e+00   0.000e+00
   9.996e-01   0.000e+00   0.000e+00
   9.996e-01   0.000e+00   0.000e+00
   9.996e-01   0.000e+00   0.000e+00
   9.996e-01   0.000e+00   0.000e+00
   9.996e-01   0.000e+00   0.000e+00
   9.996e-01   0.000e+00   0.000e+00
   9.995e-01   0.000e+00   0.000e+00
   9.995e-01   0.000e+00   0.000e+00
   9.995e-01   0.000e+00   0.000e+00
   1.035e+00   0.000e+00   0.000e+00
   1.124e+00   0.000e+00   0.000e+00
   1.206e+00   0.000e+00   0.000e+00
   1.282e+00   0.000e+00   0.000e+00
   1.353e+00   0.000e+00   0.000e+00
   1.419e+00   0.000e+00   0.000e+00
   1.480e+00   0.000e+00   0.000e+00
   1.539e+00   0.000e+00   0.000e+00
   1.594e+00   0.000e+00   0.000e+00
   1.646e+00   0.000e+00   0.000e+00
   1.696e+00   0.000e+00   0.000e+00
   1.701e+00   0.000e+00   0.000e+00
   1.651e+00   0.000e+00   0.000e+00
   1.600e+00   0.000e+00   0.000e+00
   1.545e+00   0.000e+00   0.000e+00
   1.488e+00   0.000e+00   0.000e+00
   1.427e+00   0.000e+00   0.000e+00
   1.362e+00   0.000e+00   0.000e+00
   1.293e+00   0.000e+00   0.000e+00
   1.219e+00   0.000e+00   0.000e+00
   1.139e+00   0.000e+00   0.000e+00
   1.052e+00   0.000e+00   0.000e+00
   9.994e-01   0.000e+00   0.000e+00
   9.996e-01   0.000e+00   0.000e+00
   9.996e-01   0.000e+00   0.000e+00
   9.996e-01   0.000e+00   0.000e+00
   9.996e-01   0.000e+00   0.000e+00
   9.996e-01   0.000e+00   0.000e+00
   9.996e-01   0.000e+00   0.000e+00
   9.996e-01   0.000e+00   0.000e+00
   9.996e-01   0.000e+00   0.000e+00
   9.996e-01   0.000e+00   0.000e+00
   9.996e-01   0.000e+00   0.000e+00
   9.996e-01   0.000e+00   0.000e+00
   9.996e-01   0.000e+00   0.000e+00
   9.996e-01   0.000e+00   0.000e+00
   9.996e-01   0.000e+00   0.000e+00
   9.996e-01   0.000e+00   0.000e+00
   9.996e-01   0.000e+00   0.000e+00
   9.996e-01   0.000e+00   0.000e+00
   9.996e-01   0.000e+00   0.000e+00
   9.994e-01   0.000e+00   0.000e+00
   1.052e+00   0.000e+00   0.000e+00
   1.139e+00   0.000e+00   0.000e+00
   1.219e+00   0.000e+00   0.000e+00
   1.293e+00   0.000e+00   0.000e+00
   1.362e+00   0.000e+00   0.000e+00
   1.427e+00   0.000e+00   0.000e+00
   1.488e+00   0.000e+00   0.000e+00
   1.545e+00   0.000e+00   0.000e+00
   1.600e+00   0.000e+00   0.000e+00
   1.651e+00   0.000e+00   0.000e+00
   1.701e+00   0.000e+00   0.000e+00
   1.708e+00   0.000e+00   0.000e+00
   1.659e+00   0.000e+00   0.000e+00
   1.608e+00   0.000e+00   0.000e+00
   1.555e+00   0.000e+00   0.000e+00
   1.498e+00   0.000e+00   0.000e+00
   1.439e+00   0.000e+00   0.000e+00
   1.376e+00   0.000e+00   0.000e+00
   1.308e+00   0.000e+00   0.000e+00
   1.237e+00   0.000e+00   0.000e+00
   1.160e+00   0.000e+00   0.000e+00
   1.078e+00   0.000e+00   0.000e+00
   9.998e-01   0.000e+00   0.000e+00
   9.996e-01   0.000e+00   0.000e+00
   9.996e-01   0.000e+00   0.000e+00
   9.996e-01   0.000e+00   0.000e+00
   9.996e-01   0.000e+00   0.000e+00
   9.996e-01   0.000e+00   0.000e+00
   9.996e-01   0.000e+00   0.000e+00
   9.996e-01   0.000e+00   0.000e+00
   9.996e-01   0.000e+00   0.000e+00
   9.996e-01   0.000e+00   0.000e+00
   9.996e-01   0.000e+00   0.000e+00
   9.996e-01   0.000e+00   0.000e+00
   9.996e-01   0.000e+00   0.000e+00
   9.996e-01   0.000e+00   0.000e+00
   9.996e-01   0.000e+00   0.000e+00
   9.996e-01   0.000e+00   0.000e+00
   9.996e-01   0.000e+00   0.000e+00
   9.996e-01   0.000e+00   0.000e+00
   9.996e-01   0.000e+00   0.000e+00
   9.998e-01   0.000e+00   0.000e+00
   1.078e+00   0.000e+00   0.000e+00
   1.160e+00   0.000e+00   0.000e+00
   1.237e+00   0.000e+00   0.000e+00
   1.308e+00   0.000e+00   0.000e+00
   1.376e+00   0.000e+00   0.000e+00
   1.439e+00   0.000e+00   0.000e+00
   1.498e+00   0.000e+00   0.000e+00
   1.555e+00   0.000e+00   0.000e+00
   1.608e+00   0.000e+00   0.000e+00
   1.659e+00   0.000e+00   0.000e+00
   1.708e+00   0.000e+00   0.000e+00
   1.717e+00   0.000e+00   0.000e+00
   1.669e+00   0.000e+00   0.000e+00
   1.619e+00   0.000e+00   0.000e+00
   1.567e+00   0.000e+00   0.000e+00
   1.512e+00   0.000e+00   0.000e+00
   1.454e+00   0.000e+00   0.000e+00
   1.393e+00   0.000e+00   0.000e+00
   1.329e+00   0.000e+00   0.000e+00
   1.260e+00   0.000e+00   0.000e+00
   1.187e+00   0.000e+00   0.000e+00
   1.109e+00   0.000e+00   0.000e+00
   1.026e+00   0.000e+00   0.000e+00
   9.995e-01   0.000e+00   0.000e+00
   9.996e-01   0.000e+00   0.000e+00
   9.996e-01   0.000e+00   0.000e+00
   9.996e-01   0.000e+00   0.000e+00
   9.996e-01   0.000e+00   0.000e+00
   9.996e-01   0.000e+00   0.000e+00
   9.996e-01   0.000e+00   0.000e+00
   9.996e-01   0.000e+00   0.000e+00
   9.996e-01   0.000e+00   0.000e+00
   9.996e-01   0.000e+00   0.000e+00
   9.996e-01   0.000e+00   0.000e+00
   9.996e-01   0.000e+00   0.000e+00
   9.996e-01   0.000e+00   0.000e+00
   9.996e-01   0.000e+00   0.000e+00
   9.996e-01   0.000e+00   0.000e+00
   9.996e-01   0.000e+00   0.000e+00
   9.996e-01   0.000e+00   0.000e+00
   9.995e-01   0.000e+00   0.000e+00
   1.026e+00   0.000e+00   0.000e+00
   1.109e+00   0.000e+00   0.000e+00
   1.187e+00   0.000e+00   0.000e+00
   1.260e+00   0.000e+00   0.000e+00
   1.329e+00   0.000e+00   0.000e+00
   1.393e+00   0.000e+00   0.000e+00
   1.454e+00   0.000e+00   0.000e+00
   1.512e+00   0.000e+00   0.000e+00
   1.567e+00   0.000e+00   0.000e+00
   1.619e+00   0.000e+00   0.000e+00
   1.669e+00   0.000e+00   0.000e+00
   1.717e+00   0.000e+00   0.000e+00
   1.728e+00   0.000e+00   0.000e+00
   1.681e+00   0.000e+00   0.000e+00
   1.633e+00   0.000e+00   0.000e+00
   1.582e+00   0.000e+00   0.000e+00
   1.529e+00   0.000e+00   0.000e+00
   1.473e+00   0.000e+00   0.000e+00
   1.414e+00   0.000e+00   0.000e+00
   1.353e+00   0.000e+00   0.000e+00
   1.287e+00   0.000e+00   0.000e+00
   1.219e+00   0.000e+00   0.000e+00
   1.146e+00   0.000e+00   0.000e+00
   1.069e+00   0.000e+00   0.000e+00
   9.999e-01   0.000e+00   0.000e+00
   9.996e-01   0.000e+00   0.000e+00
   9.996e-01   0.000e+00   0.000e+00
   9.996e-01   0.000e+00   0.000e+00
   9.996e-01   0.000e+00   0.000e+00
   9.996e-01   0.000e+00   0.000e+00
   9.996e-01   0.000e+00   0.000e+00
   9.996e-01   0.000e+00   0.000e+00
   9.996e-01   0.000e+00   0.000e+00
   9.996e-01   0.000e+00   0.000e+00
   9.996e-01   0.000e+00   0.000e+00
   9.996e-01   0.000e+00   0.000e+00
   9.996e-01   0.000e+00   0.000e+00
   9.996e-01   0.000e+00   0.000e+00
   9.996e-01   0.000e+00   0.000e+00
   9.996e-01   0.000e+00   0.000e+00
   9.996e-01   0.000e+00   0.000e+00
   9.999e-01   0.000e+00   0.000e+00
   1.069e+00   0.000e+00   0.000e+00
   1.146e+00   0.000e+00   0.000e+00
   1.219e+00   0.000e+00   0.000e+00
   1.287e+00   0.000e+00   0.000e+00
   1.353e+00   0.000e+00   0.000e+00
   1.414e+00   0.000e+00   0.000e+00
   1.473e+00   0.000e+00   0.000e+00
   1.529e+00   0.000e+00   0.000e+00
   1.582e+00   0.000e+00   0.000e+00
   1.633e+00   0.000e+00   0.000e+00
   1.681e+00   0.000e+00   0.000e+00
   1.728e+00   0.000e+00   0.000e+00
   1.741e+00   0.000e+00   0.000e+00
   1.696e+00   0.000e+00   0.000e+00
   1.649e+00   0.000e+00   0.000e+00
   1.600e+00   0.000e+00   0.000e+00
   1.548e+00   0.000e+00   0.000e+00
   1.495e+00   0.000e+00   0.000e+00
   1.439e+00   0.000e+00   0.000e+00
   1.380e+00   0.000e+00   0.000e+00
   1.319e+00   0.000e+00   0.000e+00
   1.254e+00   0.000e+00   0.000e+00
   1.187e+00   0.000e+00   0.000e+00
   1.117e+00   0.000e+00   0.000e+00
   1.044e+00   0.000e+00   0.000e+00
   9.996e-01   0.000e+00   0.000e+00
   9.996e-01   0.000e+00   0.000e+00
   9.996e-01   0.000e+00   0.000e+00
   9.996e-01   0.000e+00   0.000e+00
   9.996e-01   0.000e+00   0.000e+00
   9.996e-01   0.000e+00   0.000e+00
   9.996e-01   0.000e+00   0.000e+00
   9.995e-01   0.000e+00   0.000e+00
   9.995e-01   0.000e+00   0.000e+00
   9.996e-01   0.000e+00   0.000e+00
   9.996e-01   0.000e+00   0.000e+00
   9.996e-01   0.000e+00   0.000e+00
   9.996e-01   0.000e+00   0.000e+00
   9.996e-01   0.000e+00   0.000e+00
   9.996e-01   0.000e+00   0.000e+00
   9.996e-01   0.000e+00   0.000e+00
   1.044e+00   0.000e+00   0.000e+00
   1.117e+00   0.000e+00   0.000e+00
   1.187e+00   0.000e+00   0.000e+00
   1.254e+00   0.000e+00   0.000e+00
   1.319e+00   0.000e+00   0.000e+00
   1.380e+00   0.000e+00   0.000e+00
   1.439e+00   0.000e+00   0.000e+00
   1.495e+00   0.000e+00   0.000e+00
   1.548e+00   0.000e+00   0.000e+00
   1.600e+00   0.000e+00   0.000e+00
   1.649e+00   0.000e+00   0.000e+00
   1.696e+00   0.000e+00   0.000e+00
   1.741e+00   0.000e+00   0.000e+00
   1.756e+00   0.000e+00   0.000e+00
   1.712e+00   0.000e+00   0.000e+00
   1.667e+00   0.000e+00   0.000e+00
   1.619e+00   0.000e+00   0.000e+00
   1.570e+00   0.000e+00   0.000e+00
   1.519e+00   0.000e+00   0.000e+00
   1.466e+00   0.000e+00   0.000e+00
   1.410e+00   0.000e+00   0.000e+00
   1.353e+00   0.000e+00   0.000e+00
   1.293e+00   0.000e+00   0.000e+00
   1.231e+00   0.000e+00   0.000e+00
   1.167e+00   0.000e+00   0.000e+00
   1.102e+00   0.000e+00   0.000e+00
   1.035e+00   0.000e+00   0.000e+00
   9.996e-01   0.000e+00   0.000e+00
   9.996e-01   0.000e+00   0.000e+00
   9.996e-01   0.000e+00   0.000e+00
   9.996e-01   0.000e+00   0.000e+00
   9.996e-01   0.000e+00   0.000e+00
   9.995e-01   0.000e+00   0.000e+00
   9.995e-01   0.000e+00   0.000e+00
   9.995e-01   0.000e+00   0.000e+00
   9.995e-01   0.000e+00   0.000e+00
   9.996e-01   0.000e+00   0.000e+00
   9.996e-01   0.000e+00   0.000e+00
   9.996e-01   0.000e+00   0.000e+00
   9.996e-01   0.000e+00   0.000e+00
   9.996e-01   0.000e+00   0.000e+00
   1.035e+00   0.000e+00   0.000e+00
   1.102e+00   0.000e+00   0.000e+00
   1.167e+00   0.000e+00   0.000e+00
   1.231e+00   0.000e+00   0.000e+00
   1.293e+00   0.000e+00   0.000e+00
   1.353e+00   0.000e+00   0.000e+00
   1.410e+00   0.000e+00   0.000e+00
   1.466e+00   0.000e+00   0.000e+00
   1.519e+00   0.000e+00   0.000e+00
   1.570e+00   0.000e+00   0.000e+00
   1.619e+00   0.000e+00   0.000e+00
   1.667e+00   0.000e+00   0.000e+00
   1.712e+00   0.000e+00   0.000e+00
   1.756e+00   0.000e+00   0.000e+00
   1.773e+00   0.000e+00   0.000e+00
   1.730e+00   0.000e+00   0.000e+00
   1.686e+00   0.000e+00   0.000e+00
   1.641e+00   0.000e+00   0.000e+00
   1.594e+00   0.000e+00   0.000e+00
   1.545e+00   0.000e+00   0.000e+00
   1.495e+00   0.000e+00   0.000e+00
   1.443e+00   0.000e+00   0.000e+00
   1.389e+00   0.000e+00   0.000e+00
   1.333e+00   0.000e+00   0.000e+00
   1.277e+00   0.000e+00   0.000e+00
   1.219e+00   0.000e+00   0.000e+00
   1.160e+00   0.000e+00   0.000e+00
   1.102e+00   0.000e+00   0.000e+00
   1.044e+00   0.000e+00   0.000e+00
   9.999e-01   0.000e+00   0.000e+00
   9.995e-01   0.000e+00   0.000e+00
   9.996e-01   0.000e+00   0.000e+00
   9.996e-01   0.000e+00   0.000e+00
   9.995e-01   0.000e+00   0.000e+00
   9.995e-01   0.000e+00   0.000e+00
   9.995e-01   0.000e+00   0.000e+00
   9.995e-01   0.000e+00   0.000e+00
   9.996e-01   0.000e+00   0.000e+00
   9.996e-01   0.000e+00   0.000e+00
   9.995e-01   0.000e+00   0.000e+00
   9.999e-01   0.000e+00   0.000e+00
   1.044e+00   0.000e+00   0.000e+00
   1.102e+00   0.000e+00   0.000e+00
   1.160e+00   0.000e+00   0.000e+00
   1.219e+00   0.000e+00   0.000e+00
   1.277e+00   0.000e+00   0.000e+00
   1.333e+00   0.000e+00   0.000e+00
   1.389e+00   0.000e+00   0.000e+00
   1.443e+00   0.000e+00   0.000e+00
   1.495e+00   0.000e+00   0.000e+00
   1.545e+00   0.000e+00   0.000e+00
   1.594e+00   0.000e+00   0.000e+00
   1.641e+00   0.000e+00   0.000e+00
   1.686e+00   0.000e+00   0.000e+00
   1.730e+00   0.000e+00   0.000e+00
   1.773e+00   0.000e+00   0.000e+00
   1.791e+00   0.000e+00   0.000e+00
   1.750e+00   0.000e+00   0.000e+00
   1.707e+00   0.000e+00   0.000e+00
   1.664e+00   0.000e+00   0.000e+00
   1.619e+00   0.000e+00   0.000e+00
   1.573e+00   0.000e+00   0.000e+00
   1.526e+00   0.000e+00   0.000e+00
   1.477e+00   0.000e+00   0.000e+00
   1.427e+00   0.000e+00   0.000e+00
   1.375e+00   0.000e+00   0.000e+00
   1.323e+00   0.000e+00   0.000e+00
   1.271e+00   0.000e+00   0.000e+00
   1.219e+00   0.000e+00   0.000e+00
   1.167e+00   0.000e+00   0.000e+00
   1.117e+00   0.000e+00   0.000e+00
   1.069e+00   0.000e+00   0.000e+00
   1.026e+00   0.000e+00   0.000e+00
   9.998e-01   0.000e+00   0.000e+00
   9.994e-01   0.000e+00   0.000e+00
   9.995e-01   0.000e+00   0.000e+00
   9.995e-01   0.000e+00   0.000e+00
   9.995e-01   0.000e+00   0.000e+00
   9.995e-01   0.000e+00   0.000e+00
   9.994e-01   0.000e+00   0.000e+00
   9.998e-01   0.000e+00   0.000e+00
   1.026e+00   0.000e+00   0.000e+00
   1.069e+00   0.000e+00   0.000e+00
   1.117e+00   0.000e+00   0.000e+00
   1.167e+00   0.000e+00   0.000e+00
   1.219e+00   0.000e+00   0.000e+00
   1.271e+00   0.000e+00   0.000e+00
   1.323e+00   0.000e+00   0.000e+00
   1.375e+00   0.000e+00   0.000e+00
   1.427e+00   0.000e+00   0.000e+00
   1.477e+00   0.000e+00   0.000e+00
   1.526e+00   0.000e+00   0.000e+00
   1.573e+00   0.000e+00   0.000e+00
   1.619e+00   0.000e+00   0.000e+00
   1.664e+00   0.000e+00   0.000e+00
   1.707e+00   0.000e+00   0.000e+00
   1.750e+00   0.000e+00   0.000e+00
   1.791e+00   0.000e+00   0.000e+00
   1.810e+00   0.000e+00   0.000e+00
   1.770e+00   0.000e+00   0.000e+00
   1.730e+00   0.000e+00   0.000e+00
   1.689e+00   0.000e+00   0.000e+00
   1.646e+00   0.000e+00   0.000e+00
   1.602e+00   0.000e+00   0.000e+00
   1.558e+00   0.000e+00   0.000e+00
   1.512e+00   0.000e+00   0.000e+00
   1.466e+00   0.000e+00   0.000e+00
   1.418e+00   0.000e+00   0.000e+00
   1.371e+00   0.000e+00   0.000e+00
   1.323e+00   0.000e+00   0.000e+00
   1.277e+00   0.000e+00   0.000e+00
   1.231e+00   0.000e+00   0.000e+00
   1.187e+00   0.000e+00   0.000e+00
   1.146e+00   0.000e+00   0.000e+00
   1.109e+00   0.000e+00   0.000e+00
   1.078e+00   0.000e+00   0.000e+00
   1.052e+00   0.000e+00   0.000e+00
   1.035e+00   0.000e+00   0.000e+00
   1.026e+00   0.000e+00   0.000e+00
   1.026e+00   0.000e+00   0.000e+00
   1.035e+00   0.000e+00   0.000e+00
   1.052e+00   0.000e+00   0.000e+00
   1.078e+00   0.000e+00   0.000e+00
   1.109e+00   0.000e+00   0.000e+00
   1.146e+00   0.000e+00   0.000e+00
   1.187e+00   0.000e+00   0.000e+00
   1.231e+00   0.000e+00   0.000e+00
   1.277e+00   0.000e+00   0.000e+00
   1.323e+00   0.000e+00   0.000e+00
   1.371e+00   0.000e+00   0.000e+00
   1.418e+00   0.000e+00   0.000e+00
   1.466e+00   0.000e+00   0.000e+00
   1.512e+00   0.000e+00   0.000e+00
   1.558e+00   0.000e+00   0.000e+00
   1.602e+00   0.000e+00   0.000e+00
   1.646e+00   0.000e+00   0.000e+00
   1.689e+00   0.000e+00   0.000e+00
   1.730e+00   0.000e+00   0.000e+00
   1.770e+00   0.000e+00   0.000e+00
   1.810e+00   0.000e+00   0.000e+00
   1.830e+00   0.000e+00   0.000e+00
   1.792e+00   0.000e+00   0.000e+00
   1.754e+00   0.000e+00   0.000e+00
   1.714e+00   0.000e+00   0.000e+00
   1.674e+00   0.000e+00   0.000e+00
   1.633e+00   0.000e+00   0.000e+00
   1.591e+00   0.000e+00   0.000e+00
   1.548e+00   0.000e+00   0.000e+00
   1.505e+00   0.000e+00   0.000e+00
   1.462e+00   0.000e+00   0.000e+00
   1.418e+00   0.000e+00   0.000e+00
   1.375e+00   0.000e+00   0.000e+00
   1.333e+00   0.000e+00   0.000e+00
   1.293e+00   0.000e+00   0.000e+00
   1.254e+00   0.000e+00   0.000e+00
   1.219e+00   0.000e+00   0.000e+00
   1.187e+00   0.000e+00   0.000e+00
   1.160e+00   0.000e+00   0.000e+00
   1.139e+00   0.000e+00   0.000e+00
   1.124e+00   0.000e+00   0.000e+00
   1.117e+00   0.000e+00   0.000e+00
   1.117e+00   0.000e+00   0.000e+00
   1.124e+00   0.000e+00   0.000e+00
   1.139e+00   0.000e+00   0.000e+00
   1.160e+00   0.000e+00   0.000e+00
   1.187e+00   0.000e+00   0.000e+00
   1.219e+00   0.000e+00   0.000e+00
   1.254e+00   0.000e+00   0.000e+00
   1.293e+00   0.000e+00   0.000e+00
   1.333e+00   0.000e+00   0.000e+00
   1.375e+00   0.000e+00   0.000e+00
   1.418e+00   0.000e+00   0.000e+00
   1.462e+00   0.000e+00   0.000e+00
   1.505e+00   0.000e+00   0.000e+00
   1.548e+00   0.000e+00   0.000e+00
   1.591e+00   0.000e+00   0.000e+00
   1.633e+00   0.000e+00   0.000e+00
   1.674e+00   0.000e+00   0.000e+00
   1.714e+00   0.000e+00   0.000e+00
   1.754e+00   0.000e+00   0.000e+00
   1.792e+00   0.000e+00   0.000e+00
   1.830e+00   0.000e+00   0.000e+00
   1.851e+00   0.000e+00   0.000e+00
   1.815e+00   0.000e+00   0.000e+00
   1.778e+00   0.000e+00   0.000e+00
   1.741e+00   0.000e+00   0.000e+00
   1.703e+00   0.000e+00   0.000e+00
   1.664e+00   0.000e+00   0.000e+00
   1.625e+00   0.000e+00   0.000e+00
   1.585e+00   0.000e+00   0.000e+00
   1.545e+00   0.000e+00   0.000e+00
   1.505e+00   0.000e+00   0.000e+00
   1.466e+00   0.000e+00   0.000e+00
   1.427e+00   0.000e+00   0.000e+00
   1.389e+00   0.000e+00   0.000e+00
   1.353e+00   0.000e+00   0.000e+00
   1.319e+00   0.000e+00   0.000e+00
   1.287e+00   0.000e+00   0.000e+00
   1.260e+00   0.000e+00   0.000e+00
   1.237e+00   0.000e+00   0.000e+00
   1.219e+00   0.000e+00   0.000e+00
   1.206e+00   0.000e+00   0.000e+00
   1.200e+00   0.000e+00   0.000e+00
   1.200e+00   0.000e+00   0.000e+00
   1.206e+00   0.000e+00   0.000e+00
   1.219e+00   0.000e+00   0.000e+00
   1.237e+00   0.000e+00   0.000e+00
   1.260e+00   0.000e+00   0.000e+00
   1.287e+00   0.000e+00   0.000e+00
   1.319e+00   0.000e+00   0.000e+00
   1.353e+00   0.000e+00   0.000e+00
   1.389e+00   0.000e+00   0.000e+00
   1.427e+00   0.000e+00   0.000e+00
   1.466e+00   0.000e+00   0.000e+00
   1.505e+00   0.000e+00   0.000e+00
   1.545e+00   0.000e+00   0.000e+00
   1.585e+00   0.000e+00   0.000e+00
   1.625e+00   0.000e+00   0.000e+00
   1.664e+00   0.000e+00   0.000e+00
   1.703e+00   0.000e+00   0.000e+00
   1.741e+00   0.000e+00   0.000e+00
   1.778e+00   0.000e+00   0.000e+00
   1.815e+00   0.000e+00   0.000e+00
   1.851e+00   0.000e+00   0.000e+00
   1.873e+00   0.000e+00   0.000e+00
   1.839e+00   0.000e+00   0.000e+00
   1.804e+00   0.000e+00   0.000e+00
   1.768e+00   0.000e+00   0.000e+00
   1.732e+00   0.000e+00   0.000e+00
   1.696e+00   0.000e+00   0.000e+00
   1.659e+00   0.000e+00   0.000e+00
   1.622e+00   0.000e+00   0.000e+00
   1.585e+00   0.000e+00   0.000e+00
   1.548e+00   0.000e+00   0.000e+00
   1.512e+00   0.000e+00   0.000e+00
   1.477e+00   0.000e+00   0.000e+00
   1.443e+00   0.000e+00   0.000e+00
   1.410e+00   0.000e+00   0.000e+00
   1.380e+00   0.000e+00   0.000e+00
   1.353e+00   0.000e+00   0.000e+00
   1.329e+00   0.000e+00   0.000e+00
   1.308e+00   0.000e+00   0.000e+00
   1.293e+00   0.000e+00   0.000e+00
   1.282e+00   0.000e+00   0.000e+00
   1.277e+00   0.000e+00   0.000e+00
   1.277e+00   0.000e+00   0.000e+00
   1.282e+00   0.000e+00   0.000e+00
   1.293e+00   0.000e+00   0.000e+00
   1.308e+00   0.000e+00   0.000e+00
   1.329e+00   0.000e+00   0.000e+00
   1.353e+00   0.000e+00   0.000e+00
   1.380e+00   0.000e+00   0.000e+00
   1.410e+00   0.000e+00   0.000e+00
   1.443e+00   0.000e+00   0.000e+00
   1.477e+00   0.000e+00   0.000e+00
   1.512e+00   0.000e+00   0.000e+00
   1.548e+00   0.000e+00   0.000e+00
   1.585e+00   0.000e+00   0.000e+00
   1.622e+00   0.000e+00   0.000e+00
   1.659e+00   0.000e+00   0.000e+00
   1.696e+00   0.000e+00   0.000e+00
   1.732e+00   0.000e+00   0.000e+00
   1.768e+00   0.000e+00   0.000e+00
   1.804e+00   0.000e+00   0.000e+00
   1.839e+00   0.000e+00   0.000e+00
   1.873e+00   0.000e+00   0.000e+00
   1.896e+00   0.000e+00   0.000e+00
   1.863e+00   0.000e+00   0.000e+00
   1.830e+00   0.000e+00   0.000e+00
   1.796e+00   0.000e+00   0.000e+00
   1.762e+00   0.000e+00   0.000e+00
   1.728e+00   0.000e+00   0.000e+00
   1.693e+00   0.000e+00   0.000e+00
   1.659e+00   0.000e+00   0.000e+00
   1.625e+00   0.000e+00   0.000e+00
   1.591e+00   0.000e+00   0.000e+00
   1.558e+00   0.000e+00   0.000e+00
   1.526e+00   0.000e+00   0.000e+00
   1.495e+00   0.000e+00   0.000e+00
   1.466e+00   0.000e+00   0.000e+00
   1.439e+00   0.000e+00   0.000e+00
   1.414e+00   0.000e+00   0.000e+00
   1.393e+00   0.000e+00   0.000e+00
   1.376e+00   0.000e+00   0.000e+00
   1.362e+00   0.000e+00   0.000e+00
   1.353e+00   0.000e+00   0.000e+00
   1.348e+00   0.000e+00   0.000e+00
   1.348e+00   0.000e+00   0.000e+00
   1.353e+00   0.000e+00   0.000e+00
   1.362e+00   0.000e+00   0.000e+00
   1.376e+00   0.000e+00   0.000e+00
   1.393e+00   0.000e+00   0.000e+00
   1.414e+00   0.000e+00   0.000e+00
   1.439e+00   0.000e+00   0.000e+00
   1.466e+00   0.000e+00   0.000e+00
   1.495e+00   0.000e+00   0.000e+00
   1.526e+00   0.000e+00   0.000e+00
   1.558e+00   0.000e+00   0.000e+00
   1.591e+00   0.000e+00   0.000e+00
   1.625e+00   0.000e+00   0.000e+00
   1.659e+00   0.000e+00   0.000e+00
   1.693e+00   0.000e+00   0.000e+00
   1.728e+00   0.000e+00   0.000e+00
   1.762e+00   0.000e+00   0.000e+00
   1.796e+00   0.000e+00   0.000e+00
   1.830e+00   0.000e+00   0.000e+00
   1.863e+00   0.000e+00   0.000e+00
   1.896e+00   0.000e+00   0.000e+00
   1.919e+00   0.000e+00   0.000e+00
   1.888e+00   0.000e+00   0.000e+00
   1.856e+00   0.000e+00   0.000e+00
   1.824e+00   0.000e+00   0.000e+00
   1.792e+00   0.000e+00   0.000e+00
   1.760e+00   0.000e+00   0.000e+00
   1.728e+00   0.000e+00   0.000e+00
   1.696e+00   0.000e+00   0.000e+00
   1.664e+00   0.000e+00   0.000e+00
   1.633e+00   0.000e+00   0.000e+00
   1.602e+00   0.000e+00   0.000e+00
   1.573e+00   0.000e+00   0.000e+00
   1.545e+00   0.000e+00   0.000e+00
   1.519e+00   0.000e+00   0.000e+00
   1.495e+00   0.000e+00   0.000e+00
   1.473e+00   0.000e+00   0.000e+00
   1.454e+00   0.000e+00   0.000e+00
   1.439e+00   0.000e+00   0.000e+00
   1.427e+00   0.000e+00   0.000e+00
   1.419e+00   0.000e+00   0.000e+00
   1.414e+00   0.000e+00   0.000e+00
   1.414e+00   0.000e+00   0.000e+00
   1.419e+00   0.000e+00   0.000e+00
   1.427e+00   0.000e+00   0.000e+00
   1.439e+00   0.000e+00   0.000e+00
   1.454e+00   0.000e+00   0.000e+00
   1.473e+00   0.000e+00   0.000e+00
   1.495e+00   0.000e+00   0.000e+00
   1.519e+00   0.000e+00   0.000e+00
   1.545e+00   0.000e+00   0.000e+00
   1.573e+00   0.000e+00   0.000e+00
   1.602e+00   0.000e+00   0.000e+00
   1.633e+00   0.000e+00   0.000e+00
   1.664e+00   0.000e+00   0.000e+00
   1.696e+00   0.000e+00   0.000e+00
   1.728e+00   0.000e+00   0.000e+00
   1.760e+00   0.000e+00   0.000e+00
   1.792e+00   0.000e+00   0.000e+00
   1.824e+00   0.000e+00   0.000e+00
   1.856e+00   0.000e+00   0.000e+00
   1.888e+00   0.000e+00   0.000e+00
   1.919e+00   0.000e+00   0.000e+00
   1.943e+00   0.000e+00   0.000e+00
   1.913e+00   0.000e+00   0.000e+00
   1.883e+00   0.000e+00   0.000e+00
   1.853e+00   0.000e+00   0.000e+00
   1.823e+00   0.000e+00   0.000e+00
   1.792e+00   0.000e+00   0.000e+00
   1.762e+00   0.000e+00   0.000e+00
   1.732e+00   0.000e+00   0.000e+00
   1.703e+00   0.000e+00   0.000e+00
   1.674e+00   0.000e+00   0.000e+00
   1.646e+00   0.000e+00   0.000e+00
   1.619e+00   0.000e+00   0.000e+00
   1.594e+00   0.000e+00   0.000e+00
   1.570e+00   0.000e+00   0.000e+00
   1.548e+00   0.000e+00   0.000e+00
   1.529e+00   0.000e+00   0.000e+00
   1.512e+00   0.000e+00   0.000e+00
   1.498e+00   0.000e+00   0.000e+00
   1.488e+00   0.000e+00   0.000e+00
   1.480e+00   0.000e+00   0.000e+00
   1.477e+00   0.000e+00   0.000e+00
   1.477e+00   0.000e+00   0.000e+00
   1.480e+00   0.000e+00   0.000e+00
   1.488e+00   0.000e+00   0.000e+00
   1.498e+00   0.000e+00   0.000e+00
   1.512e+00   0.000e+00   0.000e+00
   1.529e+00   0.000e+00   0.000e+00
   1.548e+00   0.000e+00   0.000e+00
   1.570e+00   0.000e+00   0.000e+00
   1.594e+00   0.000e+00   0.000e+00
   1.619e+00   0.000e+00   0.000e+00
   1.646e+00   0.000e+00   0.000e+00
   1.674e+00   0.000e+00   0.000e+00
   1.703e+00   0.000e+00   0.000e+00
   1.732e+00   0.000e+00   0.000e+00
   1.762e+00   0.000e+00   0.000e+00
   1.792e+00   0.000e+00   0.000e+00
   1.823e+00   0.000e+00   0.000e+00
   1.853e+00   0.000e+00   0.000e+00
   1.883e+00   0.000e+00   0.000e+00
   1.913e+00   0.000e+00   0.000e+00
   1.943e+00   0.000e+00   0.000e+00
   1.967e+00   0.000e+00   0.000e+00
   1.939e+00   0.000e+00   0.000e+00
   1.910e+00   0.000e+00   0.000e+00
   1.881e+00   0.000e+00   0.000e+00
   1.853e+00   0.000e+00   0.000e+00
   1.824e+00   0.000e+00   0.000e+00
   1.796e+00   0.000e+00   0.000e+00
   1.768e+00   0.000e+00   0.000e+00
   1.741e+00   0.000e+00   0.000e+00
   1.714e+00   0.000e+00   0.000e+00
   1.689e+00   0.000e+00   0.000e+00
   1.664e+00   0.000e+00   0.000e+00
   1.641e+00   0.000e+00   0.000e+00
   1.619e+00   0.000e+00   0.000e+00
   1.600e+00   0.000e+00   0.000e+00
   1.582e+00   0.000e+00   0.000e+00
   1.567e+00   0.000e+00   0.000e+00
   1.555e+00   0.000e+00   0.000e+00
   1.545e+00   0.000e+00   0.000e+00
   1.539e+00   0.000e+00   0.000e+00
   1.535e+00   0.000e+00   0.000e+00
   1.535e+00   0.000e+00   0.000e+00
   1.539e+00   0.000e+00   0.000e+00
   1.545e+00   0.000e+00   0.000e+00
   1.555e+00   0.000e+00   0.000e+00
   1.567e+00   0.000e+00   0.000e+00
   1.582e+00   0.000e+00   0.000e+00
   1.600e+00   0.000e+00   0.000e+00
   1.619e+00   0.000e+00   0.000e+00
   1.641e+00   0.000e+00   0.000e+00
   1.664e+00   0.000e+00   0.000e+00
   1.689e+00   0.000e+00   0.000e+00
   1.714e+00   0.000e+00   0.000e+00
   1.741e+00   0.000e+00   0.000e+00
   1.768e+00   0.000e+00   0.000e+00
   1.796e+00   0.000e+00   0.000e+00
   1.824e+00   0.000e+00   0.000e+00
   1.853e+00   0.000e+00   0.000e+00
   1.881e+00   0.000e+00   0.000e+00
   1.910e+00   0.000e+00   0.000e+00
   1.939e+00   0.000e+00   0.000e+00
   1.967e+00   0.000e+00   0.000e+00
   1.991e+00   0.000e+00   0.000e+00
   1.964e+00   0.000e+00   0.000e+00
   1.937e+00   0.000e+00   0.000e+00
   1.910e+00   0.000e+00   0.000e+00
   1.883e+00   0.000e+00   0.000e+00
   1.856e+00   0.000e+00   0.000e+00
   1.830e+00   0.000e+00   0.000e+00
   1.804e+00   0.000e+00   0.000e+00
   1.778e+00   0.000e+00   0.000e+00
   1.754e+00   0.000e+00   0.000e+00
   1.730e+00   0.000e+00   0.000e+00
   1.707e+00   0.000e+00   0.000e+00
   1.686e+00   0.000e+00   0.000e+00
   1.667e+00   0.000e+00   0.000e+00
   1.649e+00   0.000e+00   0.000e+00
   1.633e+00   0.000e+00   0.000e+00
   1.619e+00   0.000e+00   0.000e+00
   1.608e+00   0.000e+00   0.000e+00
   1.600e+00   0.000e+00   0.000e+00
   1.594e+00   0.000e+00   0.000e+00
   1.591e+00   0.000e+00   0.000e+00
   1.591e+00   0.000e+00   0.000e+00
   1.594e+00   0.000e+00   0.000e+00
   1.600e+00   0.000e+00   0.000e+00
   1.608e+00   0.000e+00   0.000e+00
   1.619e+00   0.000e+00   0.000e+00
   1.633e+00   0.000e+00   0.000e+00
   1.649e+00   0.000e+00   0.000e+00
   1.667e+00   0.000e+00   0.000e+00
   1.686e+00   0.000e+00   0.000e+00
   1.707e+00   0.000e+00   0.000e+00
   1.730e+00   0.000e+00   0.000e+00
   1.754e+00   0.000e+00   0.000e+00
   1.778e+00   0.000e+00   0.000e+00
   1.804e+00   0.000e+00   0.000e+00
   1.830e+00   0.000e+00   0.000e+00
   1.856e+00   0.000e+00   0.000e+00
   1.883e+00   0.000e+00   0.000e+00
   1.910e+00   0.000e+00   0.000e+00
   1.937e+00   0.000e+00   0.000e+00
   1.964e+00   0.000e+00   0.000e+00
   1.991e+00   0.000e+00   0.000e+00
   2.015e+00   0.000e+00   0.000e+00
   1.990e+00   0.000e+00   0.000e+00
   1.964e+00   0.000e+00   0.000e+00
   1.939e+00   0.000e+00   0.000e+00
   1.913e+00   0.000e+00   0.000e+00
   1.888e+00   0.000e+00   0.000e+00
   1.863e+00   0.000e+00   0.000e+00
   1.839e+00   0.000e+00   0.000e+00
   1.815e+00   0.000e+00   0.000e+00
   1.792e+00   0.000e+00   0.000e+00
   1.770e+00   0.000e+00   0.000e+00
   1.750e+00   0.000e+00   0.000e+00
   1.730e+00   0.000e+00   0.000e+00
   1.712e+00   0.000e+00   0.000e+00
   1.696e+00   0.000e+00   0.000e+00
   1.681e+00   0.000e+00   0.000e+00
   1.669e+00   0.000e+00   0.000e+00
   1.659e+00   0.000e+00   0.000e+00
   1.651e+00   0.000e+00   0.000e+00
   1.646e+00   0.000e+00   0.000e+00
   1.643e+00   0.000e+00   0.000e+00
   1.643e+00   0.000e+00   0.000e+00
   1.646e+00   0.000e+00   0.000e+00
   1.651e+00   0.000e+00   0.000e+00
   1.659e+00   0.000e+00   0.000e+00
   1.669e+00   0.000e+00   0.000e+00
   1.681e+00   0.000e+00   0.000e+00
   1.696e+00   0.000e+00   0.000e+00
   1.712e+00   0.000e+00   0.000e+00
   1.730e+00   0.000e+00   0.000e+00
   1.750e+00   0.000e+00   0.000e+00
   1.770e+00   0.000e+00   0.000e+00
   1.792e+00   0.000e+00   0.000e+00
   1.815e+00   0.000e+00   0.000e+00
   1.839e+00   0.000e+00   0.000e+00
   1.863e+00   0.000e+00   0.000e+00
   1.888e+00   0.000e+00   0.000e+00
   1.913e+00   0.000e+00   0.000e+00
   1.939e+00   0.000e+00   0.000e+00
   1.964e+00   0.000e+00   0.000e+00
   1.990e+00   0.000e+00   0.000e+00
   2.015e+00   0.000e+00   0.000e+00
   2.040e+00   0.000e+00   0.000e+00
   2.015e+00   0.000e+00   0.000e+00
   1.991e+00   0.000e+00   0.000e+00
   1.967e+00   0.000e+00   0.000e+00
   1.943e+00   0.000e+00   0.000e+00
   1.919e+00   0.000e+00   0.000e+00
   1.896e+00   0.000e+00   0.000e+00
   1.873e+00   0.000e+00   0.000e+00
   1.851e+00   0.000e+00   0.000e+00
   1.830e+00   0.000e+00   0.000e+00
   1.810e+00   0.000e+00   0.000e+00
   1.791e+00   0.000e+00   0.000e+00
   1.773e+00   0.000e+00   0.000e+00
   1.756e+00   0.000e+00   0.000e+00
   1.741e+00   0.000e+00   0.000e+00
   1.728e+00   0.000e+00   0.000e+00
   1.717e+00   0.000e+00   0.000e+00
   1.708e+00   0.000e+00   0.000e+00
   1.701e+00   0.000e+00   0.000e+00
   1.696e+00   0.000e+00   0.000e+00
   1.694e+00   0.000e+00   0.000e+00
   1.694e+00   0.000e+00   0.000e+00
   1.696e+00   0.000e+00   0.000e+00
   1.701e+00   0.000e+00   0.000e+00
   1.708e+00   0.000e+00   0.000e+00
   1.717e+00   0.000e+00   0.000e+00
   1.728e+00   0.000e+00   0.000e+00
   1.741e+00   0.000e+00   0.000e+00
   1.756e+00   0.000e+00   0.000e+00
   1.773e+00   0.000e+00   0.000e+00
   1.791e+00   0.000e+00   0.000e+00
   1.810e+00   0.000e+00   0.000e+00
   1.830e+00   0.000e+00   0.000e+00
   1.851e+00   0.000e+00   0.000e+00
   1.873e+00   0.000e+00   0.000e+00
   1.896e+00   0.000e+00   0.000e+00
   1.919e+00   0.000e+00   0.000e+00
   1.943e+00   0.000e+00   0.000e+00
   1.967e+00   0.000e+00   0.000e+00
   1.991e+00   0.000e+00   0.000e+00
   2.015e+00   0.000e+00   0.000e+00
   2.040e+00   0.000e+00   0.000e+00
   9.996e-01   0.000e+00   0.000e+00
   9.998e-01   0.000e+00   0.000e+00
   9.997e-01   0.000e+00   0.000e+00
   1.000e+00   0.000e+00   0.000e+00
   9.996e-01   0.000e+00   0.000e+00
   9.992e-01   0.000e+00   0.000e+00
   9.997e-01   0.000e+00   0.000e+00
   9.997e-01   0.000e+00   0.000e+00
   9.992e-01   0.000e+00   0.000e+00
   9.993e-01   0.000e+00   0.000e+00
   9.997e-01   0.000e+00   0.000e+00
   9.996e-01   0.000e+00   0.000e+00
   9.993e-01   0.000e+00   0.000e+00
   9.995e-01   0.000e+00   0.000e+00
   9.996e-01   0.000e+00   0.000e+00
   9.996e-01   0.000e+00   0.000e+00
   9.995e-01   0.000e+00   0.000e+00
   9.995e-01   0.000e+00   0.000e+00
   9.996e-01   0.000e+00   0.000e+00
   9.996e-01   0.000e+00   0.000e+00
   9.995e-01   0.000e+00   0.000e+00
   9.993e-01   0.000e+00   0.000e+00
   9.996e-01   0.000e+00   0.000e+00
   9.996e-01   0.000e+00   0.000e+00
   9.993e-01   0.000e+00   0.000e+00
   9.992e-01   0.000e+00   0.000e+00
   9.996e-01   0.000e+00   0.000e+00
   9.997e-01   0.000e+00   0.000e+00
   9.992e-01   0.000e+00   0.000e+00
   9.996e-01   0.000e+00   0.000e+00
   9.997e-01   0.000e+00   0.000e+00
   9.997e-01   0.000e+00   0.000e+00
   9.996e-01   0.000e+00   0.000e+00
   9.998e-01   0.000e+00   0.000e+00
   9.997e-01   0.000e+00   0.000e+00
   1.000e+00   0.000e+00   0.000e+00
   9.996e-01   0.000e+00   0.000e+00
   9.998e-01   0.000e+00   0.000e+00
   1.000e+00   0.000e+00   0.000e+00
   1.000e+00   0.000e+00   0.000e+00
   9.996e-01   0.000e+00   0.000e+00
   9.997e-01   0.000e+00   0.000e+00
   1.000e+00   0.000e+00   0.000e+00
   1.000e+00   0.000e+00   0.000e+00
   9.998e-01   0.000e+00   0.000e+00
   9.997e-01   0.000e+00   0.000e+00
   1.000e+00   0.000e+00   0.000e+00
   1.000e+00   0.000e+00   0.000e+00
   9.998e-01   0.000e+00   0.000e+00
   9.997e-01   0.000e+00   0.000e+00
   1.000e+00   0.000e+00   0.000e+00
   1.000e+00   0.000e+00   0.000e+00
   9.997e-01   0.000e+00   0.000e+00
   9.996e-01   0.000e+00   0.000e+00
   1.000e+00   0.000e+00   0.000e+00
   1.000e+00   0.000e+00   0.000e+00
   9.996e-01   0.000e+00   0.000e+00
   9.998e-01   0.000e+00   0.000e+00
   1.000e+00   0.000e+00   0.000e+00
   1.000e+00   0.000e+00   0.000e+00
   9.995e-01   0.000e+00   0.000e+00
   9.997e-01   0.000e+00   0.000e+00
   9.998e-01   0.000e+00   0.000e+00
   1.000e+00   0.000e+00   0.000e+00
   9.998e-01   0.000e+00   0.000e+00
   9.995e-01   0.000e+00   0.000e+00
   1.000e+00   0.000e+00   0.000e+00
   9.998e-01   0.000e+00   0.000e+00
   9.998e-01   0.000e+00   0.000e+00
   9.995e-01   0.000e+00   0.000e+00
   1.000e+00   0.000e+00   0.000e+00
   9.998e-01   0.000e+00   0.000e+00
   9.995e-01   0.000e+00   0.000e+00
   9.997e-01   0.000e+00   0.000e+00
   9.998e-01   0.000e+00   0.000e+00
   1.000e+00   0.000e+00   0.000e+00
   9.997e-01   0.000e+00   0.000e+00
   9.995e-01   0.000e+00   0.000e+00
   1.000e+00   0.000e+00   0.000e+00
   9.998e-01   0.000e+00   0.000e+00
   9.997e-01   0.000e+00   0.000e+00
   9.997e-01   0.000e+00   0.000e+00
   1.000e+00   0.000e+00   0.000e+00
   1.000e+00   0.000e+00   0.000e+00
   9.997e-01   0.000e+00   0.000e+00
   9.997e-01   0.000e+00   0.000e+00
   1.000e+00   0.000e+00   0.000e+00
   1.000e+00   0.000e+00   0.000e+00
   9.997e-01   0.000e+00   0.000e+00
   9.995e-01   0.000e+00   0.000e+00
   1.000e+00   0.000e+00   0.000e+00
   9.998e-01   0.000e+00   0.000e+00
   9.998e-01   0.000e+00   0.000e+00
   9.996e-01   0.000e+00   0.000e+00
   1.000e+00   0.000e+00   0.000e+00
   1.000e+00   0.000e+00   0.000e+00
   9.995e-01   0.000e+00   0.000e+00
   9.998e-01   0.000e+00   0.000e+00
   9.998e-01   0.000e+00   0.000e+00
   1.000e+00   0.000e+00   0.000e+00
   9.995e-01   0.000e+00   0.000e+00
   9.998e-01   0.000e+00   0.000e+00
   9.998e-01   0.000e+00   0.000e+00
   1.000e+00   0.000e+00   0.000e+00
   9.998e-01   0.000e+00   0.000e+00
   9.996e-01   0.000e+00   0.000e+00
   1.000e+00   0.000e+00   0.000e+00
   1.000e+00   0.000e+00   0.000e+00
   9.996e-01   0.000e+00   0.000e+00
   9.997e-01   0.000e+00   0.000e+00
   1.000e+00   0.000e+00   0.000e+00
   1.000e+00   0.000e+00   0.000e+00
   9.996e-01   0.000e+00   0.000e+00
   9.997e-01   0.000e+00   0.000e+00
   1.000e+00   0.000e+00   0.000e+00
   1.000e+00   0.000e+00   0.000e+00
   9.998e-01   0.000e+00   0.000e+00
   9.996e-01   0.000e+00   0.000e+00
   1.000e+00   0.000e+00   0.000e+00
   9.997e-01   0.000e+00   0.000e+00
   9.997e-01   0.000e+00   0.000e+00
   9.998e-01   0.000e+00   0.000e+00
   1.000e+00   0.000e+00   0.000e+00
   1.000e+00   0.000e+00   0.000e+00
   9.997e-01   0.000e+00   0.000e+00
   9.998e-01   0.000e+00   0.000e+00
   1.000e+00   0.000e+00   0.000e+00
   1.000e+00   0.000e+00   0.000e+00
   9.998e-01   0.000e+00   0.000e+00
   9.996e-01   0.000e+00   0.000e+00
   1.000e+00   0.000e+00   0.000e+00
   9.997e-01   0.000e+00   0.000e+00
   9.996e-01   0.000e+00   0.000e+00
   9.992e-01   0.000e+00   0.000e+00
   9.997e-01   0.000e+00   0.000e+00
   9.997e-01   0.000e+00   0.000e+00
   9.996e-01   0.000e+00   0.000e+00
   9.992e-01   0.000e+00   0.000e+00
   9.997e-01   0.000e+00   0.000e+00
   9.997e-01   0.000e+00   0.000e+00
   9.992e-01   0.000e+00   0.000e+00
   9.993e-01   0.000e+00   0.000e+00
   9.997e-01   0.000e+00   0.000e+00
   9.996e-01   0.000e+00   0.000e+00
   9.992e-01   0.000e+00   0.000e+00
   9.993e-01   0.000e+00   0.000e+00
   9.997e-01   0.000e+00   0.000e+00
   9.996e-01   0.000e+00   0.000e+00
   9.993e-01   0.000e+00   0.000e+00
   9.995e-01   0.000e+00   0.000e+00
   9.996e-01   0.000e+00   0.000e+00
   9.996e-01   0.000e+00   0.000e+00
   9.993e-01   0.000e+00   0.000e+00
   9.995e-01   0.000e+00   0.000e+00
   9.996e-01   0.000e+00   0.000e+00
   9.996e-01   0.000e+00   0.000e+00
   9.995e-01   0.000e+00   0.000e+00
   9.995e-01   0.000e+00   0.000e+00
   9.996e-01   0.000e+00   0.000e+00
   9.996e-01   0.000e+00   0.000e+00
   9.995e-01   0.000e+00   0.000e+00
   9.995e-01   0.000e+00   0.000e+00
   9.996e-01   0.000e+00   0.000e+00
   9.996e-01   0.000e+00   0.000e+00
   9.995e-01   0.000e+00   0.000e+00
   9.993e-01   0.000e+00   0.000e+00
   9.996e-01   0.000e+00   0.000e+00
   9.996e-01   0.000e+00   0.000e+00
   9.995e-01   0.000e+00   0.000e+00
   9.993e-01   0.000e+00   0.000e+00
   9.996e-01   0.000e+00   0.000e+00
   9.996e-01   0.000e+00   0.000e+00
   9.993e-01   0.000e+00   0.000e+00
   9.992e-01   0.000e+00   0.000e+00
   9.996e-01   0.000e+00   0.000e+00
   9.997e-01   0.000e+00   0.000e+00
   9.993e-01   0.000e+00   0.000e+00
   9.992e-01   0.000e+00   0.000e+00
   9.996e-01   0.000e+00   0.000e+00
   9.997e-01   0.000e+00   0.000e+00
   9.992e-01   0.000e+00   0.000e+00
   9.996e-01   0.000e+00   0.000e+00
   9.997e-01   0.000e+00   0.000e+00
   9.997e-01   0.000e+00   0.000e+00
   9.992e-01   0.000e+00   0.000e+00
   9.996e-01   0.000e+00   0.000e+00
   9.997e-01   0.000e+00   0.000e+00
   9.997e-01   0.000e+00   0.000e+00
   9.996e-01   0.000e+00   0.000e+00
   9.998e-01   0.000e+00   0.000e+00
   9.997e-01   0.000e+00   0.000e+00
   1.000e+00   0.000e+00   0.000e+00
   9.998e-01   0.000e+00   0.000e+00
   9.997e-01   0.000e+00   0.000e+00
   1.000e+00   0.000e+00   0.000e+00
   1.000e+00   0.000e+00   0.000e+00
   9.998e-01   0.000e+00   0.000e+00
   9.997e-01   0.000e+00   0.000e+00
   1.000e+00   0.000e+00   0.000e+00
   1.000e+00   0.000e+00   0.000e+00
   9.996e-01   0.000e+00   0.000e+00
   9.998e-01   0.000e+00   0.000e+00
   9.997e-01   0.000e+00   0.000e+00
   1.000e+00   0.000e+00   0.000e+00
   9.997e-01   0.000e+00   0.000e+00
   9.996e-01   0.000e+00   0.000e+00
   1.000e+00   0.000e+00   0.000e+00
   1.000e+00   0.000e+00   0.000e+00
   9.997e-01   0.000e+00   0.000e+00
   9.996e-01   0.000e+00   0.000e+00
   1.000e+00   0.000e+00   0.000e+00
   1.000e+00   0.000e+00   0.000e+00
   9.996e-01   0.000e+00   0.000e+00
   9.998e-01   0.000e+00   0.000e+00
   1.000e+00   0.000e+00   0.000e+00
   1.000e+00   0.000e+00   0.000e+00
   9.998e-01   0.000e+00   0.000e+00
   9.995e-01   0.000e+00   0.000e+00
   1.000e+00   0.000e+00   0.000e+00
   9.998e-01   0.000e+00   0.000e+00
   9.998e-01   0.000e+00   0.000e+00
   9.995e-01   0.000e+00   0.000e+00
   1.000e+00   0.000e+00   0.000e+00
   9.998e-01   0.000e+00   0.000e+00
   9.996e-01   0.000e+00   0.000e+00
   9.998e-01   0.000e+00   0.000e+00
   1.000e+00   0.000e+00   0.000e+00
   1.000e+00   0.000e+00   0.000e+00
   9.995e-01   0.000e+00   0.000e+00
   9.997e-01   0.000e+00   0.000e+00
   9.998e-01   0.000e+00   0.000e+00
   1.000e+00   0.000e+00   0.000e+00
   9.997e-01   0.000e+00   0.000e+00
   9.997e-01   0.000e+00   0.000e+00
   1.000e+00   0.000e+00   0.000e+00
   1.000e+00   0.000e+00   0.000e+00
   9.997e-01   0.000e+00   0.000e+00
   9.997e-01   0.000e+00   0.000e+00
   1.000e+00   0.000e+00   0.000e+00
   1.000e+00   0.000e+00   0.000e+00
   9.995e-01   0.000e+00   0.000e+00
   9.997e-01   0.000e+00   0.000e+00
   9.998e-01   0.000e+00   0.000e+00
   1.000e+00   0.000e+00   0.000e+00
   9.997e-01   0.000e+00   0.000e+00
   9.995e-01   0.000e+00   0.000e+00
   1.000e+00   0.000e+00   0.000e+00
   9.998e-01   0.000e+00   0.000e+00
   9.995e-01   0.000e+00   0.000e+00
   9.998e-01   0.000e+00   0.000e+00
   9.998e-01   0.000e+00   0.000e+00
   1.000e+00   0.000e+00   0.000e+00
   9.995e-01   0.000e+00   0.000e+00
   9.998e-01   0.000e+00   0.000e+00
   9.998e-01   0.000e+00   0.000e+00
   1.000e+00   0.000e+00   0.000e+00
   9.997e-01   0.000e+00   0.000e+00
   9.995e-01   0.000e+00   0.000e+00
   1.000e+00   0.000e+00   0.000e+00
   9.998e-01   0.000e+00   0.000e+00
   9.998e-01   0.000e+00   0.000e+00
   9.996e-01   0.000e+00   0.000e+00
   1.000e+00   0.000e+00   0.000e+00
   1.000e+00   0.000e+00   0.000e+00
   9.996e-01   0.000e+00   0.000e+00
   9.997e-01   0.000e+00   0.000e+00
   1.000e+00   0.000e+00   0.000e+00
   1.000e+00   0.000e+00   0.000e+00
   9.997e-01   0.000e+00   0.000e+00
   9.998e-01   0.000e+00   0.000e+00
   1.000e+00   0.000e+00   0.000e+00
   1.000e+00   0.000e+00   0.000e+00
   9.997e-01   0.000e+00   0.000e+00
   9.998e-01   0.000e+00   0.000e+00
   1.000e+00   0.000e+00   0.000e+00
   1.000e+00   0.000e+00   0.000e+00
   9.997e-01   0.000e+00   0.000e+00
   9.996e-01   0.000e+00   0.000e+00
   1.000e+00   0.000e+00   0.000e+00
   1.000e+00   0.000e+00   0.000e+00
   9.998e-01   0.000e+00   0.000e+00
   9.996e-01   0.000e+00   0.000e+00
   1.000e+00   0.000e+00   0.000e+00
   1.000e+00   0.000e+00   0.000e+00
   9.998e-01   0.000e+00   0.000e+00
   9.996e-01   0.000e+00   0.000e+00
   1.000e+00   0.000e+00   0.000e+00
   9.997e-01   0.000e+00   0.000e+00
   9.996e-01   0.000e+00   0.000e+00
   9.992e-01   0.000e+00   0.000e+00
   9.997e-01   0.000e+00   0.000e+00
   9.997e-01   0.000e+00   0.000e+00
   9.992e-01   0.000e+00   0.000e+00
   9.993e-01   0.000e+00   0.000e+00
   9.997e-01   0.000e+00   0.000e+00
   9.996e-01   0.000e+00   0.000e+00
   9.993e-01   0.000e+00   0.000e+00
   9.995e-01   0.000e+00   0.000e+00
   9.996e-01   0.000e+00   0.000e+00
   9.996e-01   0.000e+00   0.000e+00
   9.995e-01   0.000e+00   0.000e+00
   9.995e-01   0.000e+00   0.000e+00
   9.996e-01   0.000e+00   0.000e+00
   9.996e-01   0.000e+00   0.000e+00
   9.995e-01   0.000e+00   0.000e+00
   9.993e-01   0.000e+00   0.000e+00
   9.996e-01   0.000e+00   0.000e+00
   9.996e-01   0.000e+00   0.000e+00
   9.993e-01   0.000e+00   0.000e+00
   9.992e-01   0.000e+00   0.000e+00
   9.996e-01   0.000e+00   0.000e+00
   9.997e-01   0.000e+00   0.000e+00
   9.992e-01   0.000e+00   0.000e+00
   9.996e-01   0.000e+00   0.000e+00
   9.997e-01   0.000e+00   0.000e+00
   9.997e-01   0.000e+00   0.000e+00
   9.998e-01   0.000e+00   0.000e+00
   9.996e-01   0.000e+00   0.000e+00
   1.000e+00   0.000e+00   0.000e+00
   9.997e-01   0.000e+00   0.000e+00
