# vtk DataFile Version 2.0
Bulk mesh generated by generateVTK.m
ASCII
DATASET UNSTRUCTURED_GRID

POINTS 8044 float
  -1.085e+00  -1.085e+00   0.000e+00
  -1.013e+00  -1.085e+00   0.000e+00
  -1.085e+00  -1.013e+00   0.000e+00
  -1.013e+00  -1.085e+00   0.000e+00
  -9.403e-01  -1.085e+00   0.000e+00
  -1.013e+00  -1.013e+00   0.000e+00
  -9.403e-01  -1.085e+00   0.000e+00
  -8.680e-01  -1.085e+00   0.000e+00
  -9.403e-01  -1.013e+00   0.000e+00
  -8.680e-01  -1.085e+00   0.000e+00
  -7.957e-01  -1.085e+00   0.000e+00
  -8.680e-01  -1.013e+00   0.000e+00
  -7.957e-01  -1.085e+00   0.000e+00
  -7.233e-01  -1.085e+00   0.000e+00
  -7.957e-01  -1.013e+00   0.000e+00
  -7.233e-01  -1.085e+00   0.000e+00
  -6.510e-01  -1.085e+00   0.000e+00
  -7.233e-01  -1.013e+00   0.000e+00
  -6.510e-01  -1.085e+00   0.000e+00
  -5.787e-01  -1.085e+00   0.000e+00
  -6.510e-01  -1.013e+00   0.000e+00
  -5.787e-01  -1.085e+00   0.000e+00
  -5.063e-01  -1.085e+00   0.000e+00
  -5.787e-01  -1.013e+00   0.000e+00
  -5.063e-01  -1.085e+00   0.000e+00
  -4.340e-01  -1.085e+00   0.000e+00
  -5.063e-01  -1.013e+00   0.000e+00
  -4.340e-01  -1.085e+00   0.000e+00
  -3.617e-01  -1.085e+00   0.000e+00
  -4.340e-01  -1.013e+00   0.000e+00
  -3.617e-01  -1.085e+00   0.000e+00
  -2.893e-01  -1.085e+00   0.000e+00
  -3.617e-01  -1.013e+00   0.000e+00
  -2.893e-01  -1.085e+00   0.000e+00
  -2.170e-01  -1.085e+00   0.000e+00
  -2.893e-01  -1.013e+00   0.000e+00
  -2.170e-01  -1.085e+00   0.000e+00
  -1.447e-01  -1.085e+00   0.000e+00
  -2.170e-01  -1.013e+00   0.000e+00
  -1.447e-01  -1.085e+00   0.000e+00
  -7.233e-02  -1.085e+00   0.000e+00
  -1.447e-01  -1.013e+00   0.000e+00
  -7.233e-02  -1.085e+00   0.000e+00
   0.000e+00  -1.085e+00   0.000e+00
  -7.233e-02  -1.013e+00   0.000e+00
   0.000e+00  -1.085e+00   0.000e+00
   7.233e-02  -1.085e+00   0.000e+00
   0.000e+00  -1.013e+00   0.000e+00
   7.233e-02  -1.085e+00   0.000e+00
   1.447e-01  -1.085e+00   0.000e+00
   7.233e-02  -1.013e+00   0.000e+00
   1.447e-01  -1.085e+00   0.000e+00
   2.170e-01  -1.085e+00   0.000e+00
   1.447e-01  -1.013e+00   0.000e+00
   2.170e-01  -1.085e+00   0.000e+00
   2.893e-01  -1.085e+00   0.000e+00
   2.170e-01  -1.013e+00   0.000e+00
   2.893e-01  -1.085e+00   0.000e+00
   3.617e-01  -1.085e+00   0.000e+00
   2.893e-01  -1.013e+00   0.000e+00
   3.617e-01  -1.085e+00   0.000e+00
   4.340e-01  -1.085e+00   0.000e+00
   3.617e-01  -1.013e+00   0.000e+00
   4.340e-01  -1.085e+00   0.000e+00
   5.063e-01  -1.085e+00   0.000e+00
   4.340e-01  -1.013e+00   0.000e+00
   5.063e-01  -1.085e+00   0.000e+00
   5.787e-01  -1.085e+00   0.000e+00
   5.063e-01  -1.013e+00   0.000e+00
   5.787e-01  -1.085e+00   0.000e+00
   6.510e-01  -1.085e+00   0.000e+00
   5.787e-01  -1.013e+00   0.000e+00
   6.510e-01  -1.085e+00   0.000e+00
   7.233e-01  -1.085e+00   0.000e+00
   6.510e-01  -1.013e+00   0.000e+00
   7.233e-01  -1.085e+00   0.000e+00
   7.957e-01  -1.085e+00   0.000e+00
   7.233e-01  -1.013e+00   0.000e+00
   7.957e-01  -1.085e+00   0.000e+00
   8.680e-01  -1.085e+00   0.000e+00
   7.957e-01  -1.013e+00   0.000e+00
   8.680e-01  -1.085e+00   0.000e+00
   9.403e-01  -1.085e+00   0.000e+00
   8.680e-01  -1.013e+00   0.000e+00
   9.403e-01  -1.085e+00   0.000e+00
   1.013e+00  -1.085e+00   0.000e+00
   9.403e-01  -1.013e+00   0.000e+00
   1.013e+00  -1.085e+00   0.000e+00
   1.085e+00  -1.085e+00   0.000e+00
   1.013e+00  -1.013e+00   0.000e+00
  -1.085e+00  -1.013e+00   0.000e+00
  -1.013e+00  -1.013e+00   0.000e+00
  -1.085e+00  -9.403e-01   0.000e+00
  -1.013e+00  -1.013e+00   0.000e+00
  -9.403e-01  -1.013e+00   0.000e+00
  -1.013e+00  -9.403e-01   0.000e+00
  -9.403e-01  -1.013e+00   0.000e+00
  -8.680e-01  -1.013e+00   0.000e+00
  -9.403e-01  -9.403e-01   0.000e+00
  -8.680e-01  -1.013e+00   0.000e+00
  -7.957e-01  -1.013e+00   0.000e+00
  -8.680e-01  -9.403e-01   0.000e+00
  -7.957e-01  -1.013e+00   0.000e+00
  -7.233e-01  -1.013e+00   0.000e+00
  -7.957e-01  -9.403e-01   0.000e+00
  -7.233e-01  -1.013e+00   0.000e+00
  -6.510e-01  -1.013e+00   0.000e+00
  -7.233e-01  -9.403e-01   0.000e+00
  -6.510e-01  -1.013e+00   0.000e+00
  -5.787e-01  -1.013e+00   0.000e+00
  -6.510e-01  -9.403e-01   0.000e+00
  -5.787e-01  -1.013e+00   0.000e+00
  -5.063e-01  -1.013e+00   0.000e+00
  -5.787e-01  -9.403e-01   0.000e+00
  -5.063e-01  -1.013e+00   0.000e+00
  -4.340e-01  -1.013e+00   0.000e+00
  -5.063e-01  -9.403e-01   0.000e+00
  -4.340e-01  -1.013e+00   0.000e+00
  -3.617e-01  -1.013e+00   0.000e+00
  -4.340e-01  -9.403e-01   0.000e+00
  -3.617e-01  -1.013e+00   0.000e+00
  -2.893e-01  -1.013e+00   0.000e+00
  -3.617e-01  -9.403e-01   0.000e+00
  -2.893e-01  -1.013e+00   0.000e+00
  -2.170e-01  -1.013e+00   0.000e+00
  -2.893e-01  -9.403e-01   0.000e+00
  -2.170e-01  -1.013e+00   0.000e+00
  -1.447e-01  -1.013e+00   0.000e+00
  -2.170e-01  -9.403e-01   0.000e+00
  -1.447e-01  -1.013e+00   0.000e+00
  -7.233e-02  -1.013e+00   0.000e+00
  -1.447e-01  -9.403e-01   0.000e+00
  -7.233e-02  -1.013e+00   0.000e+00
   0.000e+00  -1.013e+00   0.000e+00
  -7.233e-02  -9.403e-01   0.000e+00
   0.000e+00  -1.013e+00   0.000e+00
   7.233e-02  -1.013e+00   0.000e+00
   0.000e+00  -9.403e-01   0.000e+00
   7.233e-02  -1.013e+00   0.000e+00
   1.447e-01  -1.013e+00   0.000e+00
   7.233e-02  -9.403e-01   0.000e+00
   1.447e-01  -1.013e+00   0.000e+00
   2.170e-01  -1.013e+00   0.000e+00
   1.447e-01  -9.403e-01   0.000e+00
   2.170e-01  -1.013e+00   0.000e+00
   2.893e-01  -1.013e+00   0.000e+00
   2.170e-01  -9.403e-01   0.000e+00
   2.893e-01  -1.013e+00   0.000e+00
   3.617e-01  -1.013e+00   0.000e+00
   2.893e-01  -9.403e-01   0.000e+00
   3.617e-01  -1.013e+00   0.000e+00
   4.340e-01  -1.013e+00   0.000e+00
   3.617e-01  -9.403e-01   0.000e+00
   4.340e-01  -1.013e+00   0.000e+00
   5.063e-01  -1.013e+00   0.000e+00
   4.340e-01  -9.403e-01   0.000e+00
   5.063e-01  -1.013e+00   0.000e+00
   5.787e-01  -1.013e+00   0.000e+00
   5.063e-01  -9.403e-01   0.000e+00
   5.787e-01  -1.013e+00   0.000e+00
   6.510e-01  -1.013e+00   0.000e+00
   5.787e-01  -9.403e-01   0.000e+00
   6.510e-01  -1.013e+00   0.000e+00
   7.233e-01  -1.013e+00   0.000e+00
   6.510e-01  -9.403e-01   0.000e+00
   7.233e-01  -1.013e+00   0.000e+00
   7.957e-01  -1.013e+00   0.000e+00
   7.233e-01  -9.403e-01   0.000e+00
   7.957e-01  -1.013e+00   0.000e+00
   8.680e-01  -1.013e+00   0.000e+00
   7.957e-01  -9.403e-01   0.000e+00
   8.680e-01  -1.013e+00   0.000e+00
   9.403e-01  -1.013e+00   0.000e+00
   8.680e-01  -9.403e-01   0.000e+00
   9.403e-01  -1.013e+00   0.000e+00
   1.013e+00  -1.013e+00   0.000e+00
   9.403e-01  -9.403e-01   0.000e+00
   1.013e+00  -1.013e+00   0.000e+00
   1.085e+00  -1.013e+00   0.000e+00
   1.013e+00  -9.403e-01   0.000e+00
  -1.085e+00  -9.403e-01   0.000e+00
  -1.013e+00  -9.403e-01   0.000e+00
  -1.085e+00  -8.680e-01   0.000e+00
  -1.013e+00  -9.403e-01   0.000e+00
  -9.403e-01  -9.403e-01   0.000e+00
  -1.013e+00  -8.680e-01   0.000e+00
  -9.403e-01  -9.403e-01   0.000e+00
  -8.680e-01  -9.403e-01   0.000e+00
  -9.403e-01  -8.680e-01   0.000e+00
  -8.680e-01  -9.403e-01   0.000e+00
  -7.957e-01  -9.403e-01   0.000e+00
  -8.680e-01  -8.680e-01   0.000e+00
  -7.957e-01  -9.403e-01   0.000e+00
  -7.233e-01  -9.403e-01   0.000e+00
  -7.957e-01  -8.680e-01   0.000e+00
  -7.233e-01  -9.403e-01   0.000e+00
  -6.510e-01  -9.403e-01   0.000e+00
  -7.233e-01  -8.680e-01   0.000e+00
  -6.510e-01  -9.403e-01   0.000e+00
  -5.787e-01  -9.403e-01   0.000e+00
  -6.510e-01  -8.680e-01   0.000e+00
  -5.787e-01  -9.403e-01   0.000e+00
  -5.063e-01  -9.403e-01   0.000e+00
  -5.787e-01  -8.680e-01   0.000e+00
  -5.063e-01  -9.403e-01   0.000e+00
  -4.340e-01  -9.403e-01   0.000e+00
  -5.063e-01  -8.680e-01   0.000e+00
  -4.340e-01  -9.403e-01   0.000e+00
  -3.617e-01  -9.403e-01   0.000e+00
  -4.340e-01  -8.680e-01   0.000e+00
  -3.617e-01  -9.403e-01   0.000e+00
  -2.893e-01  -9.403e-01   0.000e+00
  -3.617e-01  -8.680e-01   0.000e+00
  -2.893e-01  -9.403e-01   0.000e+00
  -2.170e-01  -9.403e-01   0.000e+00
  -2.893e-01  -8.680e-01   0.000e+00
  -2.170e-01  -9.403e-01   0.000e+00
  -1.447e-01  -9.403e-01   0.000e+00
  -2.170e-01  -8.680e-01   0.000e+00
  -1.447e-01  -9.403e-01   0.000e+00
  -7.233e-02  -9.403e-01   0.000e+00
  -1.447e-01  -8.680e-01   0.000e+00
  -7.233e-02  -9.403e-01   0.000e+00
   0.000e+00  -9.403e-01   0.000e+00
  -7.233e-02  -8.680e-01   0.000e+00
   0.000e+00  -9.403e-01   0.000e+00
   7.233e-02  -9.403e-01   0.000e+00
   0.000e+00  -8.680e-01   0.000e+00
   7.233e-02  -9.403e-01   0.000e+00
   1.447e-01  -9.403e-01   0.000e+00
   7.233e-02  -8.680e-01   0.000e+00
   1.447e-01  -9.403e-01   0.000e+00
   2.170e-01  -9.403e-01   0.000e+00
   1.447e-01  -8.680e-01   0.000e+00
   2.170e-01  -9.403e-01   0.000e+00
   2.893e-01  -9.403e-01   0.000e+00
   2.170e-01  -8.680e-01   0.000e+00
   2.893e-01  -9.403e-01   0.000e+00
   3.617e-01  -9.403e-01   0.000e+00
   2.893e-01  -8.680e-01   0.000e+00
   3.617e-01  -9.403e-01   0.000e+00
   4.340e-01  -9.403e-01   0.000e+00
   3.617e-01  -8.680e-01   0.000e+00
   4.340e-01  -9.403e-01   0.000e+00
   5.063e-01  -9.403e-01   0.000e+00
   4.340e-01  -8.680e-01   0.000e+00
   5.063e-01  -9.403e-01   0.000e+00
   5.787e-01  -9.403e-01   0.000e+00
   5.063e-01  -8.680e-01   0.000e+00
   5.787e-01  -9.403e-01   0.000e+00
   6.510e-01  -9.403e-01   0.000e+00
   5.787e-01  -8.680e-01   0.000e+00
   6.510e-01  -9.403e-01   0.000e+00
   7.233e-01  -9.403e-01   0.000e+00
   6.510e-01  -8.680e-01   0.000e+00
   7.233e-01  -9.403e-01   0.000e+00
   7.957e-01  -9.403e-01   0.000e+00
   7.233e-01  -8.680e-01   0.000e+00
   7.957e-01  -9.403e-01   0.000e+00
   8.680e-01  -9.403e-01   0.000e+00
   7.957e-01  -8.680e-01   0.000e+00
   8.680e-01  -9.403e-01   0.000e+00
   9.403e-01  -9.403e-01   0.000e+00
   8.680e-01  -8.680e-01   0.000e+00
   9.403e-01  -9.403e-01   0.000e+00
   1.013e+00  -9.403e-01   0.000e+00
   9.403e-01  -8.680e-01   0.000e+00
   1.013e+00  -9.403e-01   0.000e+00
   1.085e+00  -9.403e-01   0.000e+00
   1.013e+00  -8.680e-01   0.000e+00
  -1.085e+00  -8.680e-01   0.000e+00
  -1.013e+00  -8.680e-01   0.000e+00
  -1.085e+00  -7.957e-01   0.000e+00
  -1.013e+00  -8.680e-01   0.000e+00
  -9.403e-01  -8.680e-01   0.000e+00
  -1.013e+00  -7.957e-01   0.000e+00
  -9.403e-01  -8.680e-01   0.000e+00
  -8.680e-01  -8.680e-01   0.000e+00
  -9.403e-01  -7.957e-01   0.000e+00
  -8.680e-01  -8.680e-01   0.000e+00
  -7.957e-01  -8.680e-01   0.000e+00
  -8.680e-01  -7.957e-01   0.000e+00
  -7.957e-01  -8.680e-01   0.000e+00
  -7.233e-01  -8.680e-01   0.000e+00
  -7.957e-01  -7.957e-01   0.000e+00
  -7.233e-01  -8.680e-01   0.000e+00
  -6.510e-01  -8.680e-01   0.000e+00
  -7.233e-01  -7.957e-01   0.000e+00
  -6.510e-01  -8.680e-01   0.000e+00
  -5.787e-01  -8.680e-01   0.000e+00
  -6.510e-01  -7.957e-01   0.000e+00
  -5.787e-01  -8.680e-01   0.000e+00
  -5.063e-01  -8.680e-01   0.000e+00
  -5.787e-01  -7.957e-01   0.000e+00
  -5.063e-01  -8.680e-01   0.000e+00
  -4.340e-01  -8.680e-01   0.000e+00
  -5.063e-01  -7.957e-01   0.000e+00
  -4.340e-01  -8.680e-01   0.000e+00
  -3.617e-01  -8.680e-01   0.000e+00
  -4.340e-01  -7.957e-01   0.000e+00
  -3.617e-01  -8.680e-01   0.000e+00
  -2.893e-01  -8.680e-01   0.000e+00
  -3.617e-01  -7.957e-01   0.000e+00
  -2.893e-01  -8.680e-01   0.000e+00
  -2.170e-01  -8.680e-01   0.000e+00
  -2.893e-01  -7.957e-01   0.000e+00
  -2.170e-01  -8.680e-01   0.000e+00
  -1.447e-01  -8.680e-01   0.000e+00
  -2.170e-01  -7.957e-01   0.000e+00
  -1.447e-01  -8.680e-01   0.000e+00
  -7.233e-02  -8.680e-01   0.000e+00
  -1.447e-01  -7.957e-01   0.000e+00
  -7.233e-02  -8.680e-01   0.000e+00
   0.000e+00  -8.680e-01   0.000e+00
  -7.233e-02  -7.957e-01   0.000e+00
   0.000e+00  -8.680e-01   0.000e+00
   7.233e-02  -8.680e-01   0.000e+00
   0.000e+00  -7.957e-01   0.000e+00
   7.233e-02  -8.680e-01   0.000e+00
   1.447e-01  -8.680e-01   0.000e+00
   7.233e-02  -7.957e-01   0.000e+00
   1.447e-01  -8.680e-01   0.000e+00
   2.170e-01  -8.680e-01   0.000e+00
   1.447e-01  -7.957e-01   0.000e+00
   2.170e-01  -8.680e-01   0.000e+00
   2.893e-01  -8.680e-01   0.000e+00
   2.170e-01  -7.957e-01   0.000e+00
   2.893e-01  -8.680e-01   0.000e+00
   3.617e-01  -8.680e-01   0.000e+00
   2.893e-01  -7.957e-01   0.000e+00
   3.617e-01  -8.680e-01   0.000e+00
   4.340e-01  -8.680e-01   0.000e+00
   3.617e-01  -7.957e-01   0.000e+00
   4.340e-01  -8.680e-01   0.000e+00
   5.063e-01  -8.680e-01   0.000e+00
   4.340e-01  -7.957e-01   0.000e+00
   5.063e-01  -8.680e-01   0.000e+00
   5.787e-01  -8.680e-01   0.000e+00
   5.063e-01  -7.957e-01   0.000e+00
   5.787e-01  -8.680e-01   0.000e+00
   6.510e-01  -8.680e-01   0.000e+00
   5.787e-01  -7.957e-01   0.000e+00
   6.510e-01  -8.680e-01   0.000e+00
   7.233e-01  -8.680e-01   0.000e+00
   6.510e-01  -7.957e-01   0.000e+00
   7.233e-01  -8.680e-01   0.000e+00
   7.957e-01  -8.680e-01   0.000e+00
   7.233e-01  -7.957e-01   0.000e+00
   7.957e-01  -8.680e-01   0.000e+00
   8.680e-01  -8.680e-01   0.000e+00
   7.957e-01  -7.957e-01   0.000e+00
   8.680e-01  -8.680e-01   0.000e+00
   9.403e-01  -8.680e-01   0.000e+00
   8.680e-01  -7.957e-01   0.000e+00
   9.403e-01  -8.680e-01   0.000e+00
   1.013e+00  -8.680e-01   0.000e+00
   9.403e-01  -7.957e-01   0.000e+00
   1.013e+00  -8.680e-01   0.000e+00
   1.085e+00  -8.680e-01   0.000e+00
   1.013e+00  -7.957e-01   0.000e+00
  -1.085e+00  -7.957e-01   0.000e+00
  -1.013e+00  -7.957e-01   0.000e+00
  -1.085e+00  -7.233e-01   0.000e+00
  -1.013e+00  -7.957e-01   0.000e+00
  -9.403e-01  -7.957e-01   0.000e+00
  -1.013e+00  -7.233e-01   0.000e+00
  -9.403e-01  -7.957e-01   0.000e+00
  -8.680e-01  -7.957e-01   0.000e+00
  -9.403e-01  -7.233e-01   0.000e+00
  -8.680e-01  -7.957e-01   0.000e+00
  -7.957e-01  -7.957e-01   0.000e+00
  -8.680e-01  -7.233e-01   0.000e+00
  -7.957e-01  -7.957e-01   0.000e+00
  -7.233e-01  -7.957e-01   0.000e+00
  -7.957e-01  -7.233e-01   0.000e+00
  -7.233e-01  -7.957e-01   0.000e+00
  -6.510e-01  -7.957e-01   0.000e+00
  -7.233e-01  -7.233e-01   0.000e+00
  -6.510e-01  -7.957e-01   0.000e+00
  -5.787e-01  -7.957e-01   0.000e+00
  -6.510e-01  -7.233e-01   0.000e+00
  -5.787e-01  -7.957e-01   0.000e+00
  -5.063e-01  -7.957e-01   0.000e+00
  -5.787e-01  -7.233e-01   0.000e+00
  -5.063e-01  -7.957e-01   0.000e+00
  -4.340e-01  -7.957e-01   0.000e+00
  -5.063e-01  -7.233e-01   0.000e+00
  -4.340e-01  -7.957e-01   0.000e+00
  -3.617e-01  -7.957e-01   0.000e+00
  -4.340e-01  -7.233e-01   0.000e+00
  -3.617e-01  -7.957e-01   0.000e+00
  -2.893e-01  -7.957e-01   0.000e+00
  -3.617e-01  -7.233e-01   0.000e+00
  -2.893e-01  -7.957e-01   0.000e+00
  -2.170e-01  -7.957e-01   0.000e+00
  -2.893e-01  -7.233e-01   0.000e+00
  -2.170e-01  -7.957e-01   0.000e+00
  -1.447e-01  -7.957e-01   0.000e+00
  -2.170e-01  -7.233e-01   0.000e+00
  -1.447e-01  -7.957e-01   0.000e+00
  -7.233e-02  -7.957e-01   0.000e+00
  -1.447e-01  -7.233e-01   0.000e+00
  -7.233e-02  -7.957e-01   0.000e+00
   0.000e+00  -7.957e-01   0.000e+00
  -7.233e-02  -7.233e-01   0.000e+00
   0.000e+00  -7.957e-01   0.000e+00
   7.233e-02  -7.957e-01   0.000e+00
   0.000e+00  -7.233e-01   0.000e+00
   7.233e-02  -7.957e-01   0.000e+00
   1.447e-01  -7.957e-01   0.000e+00
   7.233e-02  -7.233e-01   0.000e+00
   1.447e-01  -7.957e-01   0.000e+00
   2.170e-01  -7.957e-01   0.000e+00
   1.447e-01  -7.233e-01   0.000e+00
   2.170e-01  -7.957e-01   0.000e+00
   2.893e-01  -7.957e-01   0.000e+00
   2.170e-01  -7.233e-01   0.000e+00
   2.893e-01  -7.957e-01   0.000e+00
   3.617e-01  -7.957e-01   0.000e+00
   2.893e-01  -7.233e-01   0.000e+00
   3.617e-01  -7.957e-01   0.000e+00
   4.340e-01  -7.957e-01   0.000e+00
   3.617e-01  -7.233e-01   0.000e+00
   4.340e-01  -7.957e-01   0.000e+00
   5.063e-01  -7.957e-01   0.000e+00
   4.340e-01  -7.233e-01   0.000e+00
   5.063e-01  -7.957e-01   0.000e+00
   5.787e-01  -7.957e-01   0.000e+00
   5.063e-01  -7.233e-01   0.000e+00
   5.787e-01  -7.957e-01   0.000e+00
   6.510e-01  -7.957e-01   0.000e+00
   5.787e-01  -7.233e-01   0.000e+00
   6.510e-01  -7.957e-01   0.000e+00
   7.233e-01  -7.957e-01   0.000e+00
   6.510e-01  -7.233e-01   0.000e+00
   7.233e-01  -7.957e-01   0.000e+00
   7.957e-01  -7.957e-01   0.000e+00
   7.233e-01  -7.233e-01   0.000e+00
   7.957e-01  -7.957e-01   0.000e+00
   8.680e-01  -7.957e-01   0.000e+00
   7.957e-01  -7.233e-01   0.000e+00
   8.680e-01  -7.957e-01   0.000e+00
   9.403e-01  -7.957e-01   0.000e+00
   8.680e-01  -7.233e-01   0.000e+00
   9.403e-01  -7.957e-01   0.000e+00
   1.013e+00  -7.957e-01   0.000e+00
   9.403e-01  -7.233e-01   0.000e+00
   1.013e+00  -7.957e-01   0.000e+00
   1.085e+00  -7.957e-01   0.000e+00
   1.013e+00  -7.233e-01   0.000e+00
  -1.085e+00  -7.233e-01   0.000e+00
  -1.013e+00  -7.233e-01   0.000e+00
  -1.085e+00  -6.510e-01   0.000e+00
  -1.013e+00  -7.233e-01   0.000e+00
  -9.403e-01  -7.233e-01   0.000e+00
  -1.013e+00  -6.510e-01   0.000e+00
  -9.403e-01  -7.233e-01   0.000e+00
  -8.680e-01  -7.233e-01   0.000e+00
  -9.403e-01  -6.510e-01   0.000e+00
  -8.680e-01  -7.233e-01   0.000e+00
  -7.957e-01  -7.233e-01   0.000e+00
  -8.680e-01  -6.510e-01   0.000e+00
  -7.957e-01  -7.233e-01   0.000e+00
  -7.233e-01  -7.233e-01   0.000e+00
  -7.957e-01  -6.510e-01   0.000e+00
  -7.233e-01  -7.233e-01   0.000e+00
  -6.510e-01  -7.233e-01   0.000e+00
  -7.233e-01  -6.510e-01   0.000e+00
  -6.510e-01  -7.233e-01   0.000e+00
  -5.787e-01  -7.233e-01   0.000e+00
  -6.510e-01  -6.510e-01   0.000e+00
  -5.787e-01  -7.233e-01   0.000e+00
  -5.063e-01  -7.233e-01   0.000e+00
  -5.787e-01  -6.510e-01   0.000e+00
  -5.063e-01  -7.233e-01   0.000e+00
  -4.340e-01  -7.233e-01   0.000e+00
  -5.063e-01  -6.510e-01   0.000e+00
  -4.340e-01  -7.233e-01   0.000e+00
  -3.617e-01  -7.233e-01   0.000e+00
  -4.340e-01  -6.510e-01   0.000e+00
  -3.617e-01  -7.233e-01   0.000e+00
  -2.893e-01  -7.233e-01   0.000e+00
  -3.617e-01  -6.510e-01   0.000e+00
  -2.893e-01  -7.233e-01   0.000e+00
  -2.170e-01  -7.233e-01   0.000e+00
  -2.893e-01  -6.510e-01   0.000e+00
  -2.170e-01  -7.233e-01   0.000e+00
  -1.447e-01  -7.233e-01   0.000e+00
  -2.170e-01  -6.510e-01   0.000e+00
  -1.447e-01  -7.233e-01   0.000e+00
  -7.233e-02  -7.233e-01   0.000e+00
  -1.447e-01  -6.510e-01   0.000e+00
  -7.233e-02  -7.233e-01   0.000e+00
   0.000e+00  -7.233e-01   0.000e+00
  -7.233e-02  -6.510e-01   0.000e+00
   0.000e+00  -7.233e-01   0.000e+00
   7.233e-02  -7.233e-01   0.000e+00
   0.000e+00  -6.510e-01   0.000e+00
   7.233e-02  -7.233e-01   0.000e+00
   1.447e-01  -7.233e-01   0.000e+00
   7.233e-02  -6.510e-01   0.000e+00
   1.447e-01  -7.233e-01   0.000e+00
   2.170e-01  -7.233e-01   0.000e+00
   1.447e-01  -6.510e-01   0.000e+00
   2.170e-01  -7.233e-01   0.000e+00
   2.893e-01  -7.233e-01   0.000e+00
   2.170e-01  -6.510e-01   0.000e+00
   2.893e-01  -7.233e-01   0.000e+00
   3.617e-01  -7.233e-01   0.000e+00
   2.893e-01  -6.510e-01   0.000e+00
   3.617e-01  -7.233e-01   0.000e+00
   4.340e-01  -7.233e-01   0.000e+00
   3.617e-01  -6.510e-01   0.000e+00
   4.340e-01  -7.233e-01   0.000e+00
   5.063e-01  -7.233e-01   0.000e+00
   4.340e-01  -6.510e-01   0.000e+00
   5.063e-01  -7.233e-01   0.000e+00
   5.787e-01  -7.233e-01   0.000e+00
   5.063e-01  -6.510e-01   0.000e+00
   5.787e-01  -7.233e-01   0.000e+00
   6.510e-01  -7.233e-01   0.000e+00
   5.787e-01  -6.510e-01   0.000e+00
   6.510e-01  -7.233e-01   0.000e+00
   7.233e-01  -7.233e-01   0.000e+00
   6.510e-01  -6.510e-01   0.000e+00
   7.233e-01  -7.233e-01   0.000e+00
   7.957e-01  -7.233e-01   0.000e+00
   7.233e-01  -6.510e-01   0.000e+00
   7.957e-01  -7.233e-01   0.000e+00
   8.680e-01  -7.233e-01   0.000e+00
   7.957e-01  -6.510e-01   0.000e+00
   8.680e-01  -7.233e-01   0.000e+00
   9.403e-01  -7.233e-01   0.000e+00
   8.680e-01  -6.510e-01   0.000e+00
   9.403e-01  -7.233e-01   0.000e+00
   1.013e+00  -7.233e-01   0.000e+00
   9.403e-01  -6.510e-01   0.000e+00
   1.013e+00  -7.233e-01   0.000e+00
   1.085e+00  -7.233e-01   0.000e+00
   1.013e+00  -6.510e-01   0.000e+00
  -1.085e+00  -6.510e-01   0.000e+00
  -1.013e+00  -6.510e-01   0.000e+00
  -1.085e+00  -5.787e-01   0.000e+00
  -1.013e+00  -6.510e-01   0.000e+00
  -9.403e-01  -6.510e-01   0.000e+00
  -1.013e+00  -5.787e-01   0.000e+00
  -9.403e-01  -6.510e-01   0.000e+00
  -8.680e-01  -6.510e-01   0.000e+00
  -9.403e-01  -5.787e-01   0.000e+00
  -8.680e-01  -6.510e-01   0.000e+00
  -7.957e-01  -6.510e-01   0.000e+00
  -8.680e-01  -5.787e-01   0.000e+00
  -7.957e-01  -6.510e-01   0.000e+00
  -7.233e-01  -6.510e-01   0.000e+00
  -7.957e-01  -5.787e-01   0.000e+00
  -7.233e-01  -6.510e-01   0.000e+00
  -6.510e-01  -6.510e-01   0.000e+00
  -7.233e-01  -5.787e-01   0.000e+00
  -6.510e-01  -6.510e-01   0.000e+00
  -5.787e-01  -6.510e-01   0.000e+00
  -6.510e-01  -5.787e-01   0.000e+00
  -5.787e-01  -6.510e-01   0.000e+00
  -5.063e-01  -6.510e-01   0.000e+00
  -5.787e-01  -5.787e-01   0.000e+00
  -5.063e-01  -6.510e-01   0.000e+00
  -4.340e-01  -6.510e-01   0.000e+00
  -5.063e-01  -5.787e-01   0.000e+00
  -4.340e-01  -6.510e-01   0.000e+00
  -3.617e-01  -6.510e-01   0.000e+00
  -4.340e-01  -5.787e-01   0.000e+00
  -3.617e-01  -6.510e-01   0.000e+00
  -2.893e-01  -6.510e-01   0.000e+00
  -3.617e-01  -5.787e-01   0.000e+00
  -2.893e-01  -6.510e-01   0.000e+00
  -2.170e-01  -6.510e-01   0.000e+00
  -2.893e-01  -5.787e-01   0.000e+00
  -2.170e-01  -6.510e-01   0.000e+00
  -1.447e-01  -6.510e-01   0.000e+00
  -2.170e-01  -5.787e-01   0.000e+00
  -1.447e-01  -6.510e-01   0.000e+00
  -7.233e-02  -6.510e-01   0.000e+00
  -1.447e-01  -5.787e-01   0.000e+00
  -7.233e-02  -6.510e-01   0.000e+00
   0.000e+00  -6.510e-01   0.000e+00
  -7.233e-02  -5.787e-01   0.000e+00
   0.000e+00  -6.510e-01   0.000e+00
   7.233e-02  -6.510e-01   0.000e+00
   0.000e+00  -5.787e-01   0.000e+00
   7.233e-02  -6.510e-01   0.000e+00
   1.447e-01  -6.510e-01   0.000e+00
   7.233e-02  -5.787e-01   0.000e+00
   1.447e-01  -6.510e-01   0.000e+00
   2.170e-01  -6.510e-01   0.000e+00
   1.447e-01  -5.787e-01   0.000e+00
   2.170e-01  -6.510e-01   0.000e+00
   2.893e-01  -6.510e-01   0.000e+00
   2.170e-01  -5.787e-01   0.000e+00
   2.893e-01  -6.510e-01   0.000e+00
   3.617e-01  -6.510e-01   0.000e+00
   2.893e-01  -5.787e-01   0.000e+00
   3.617e-01  -6.510e-01   0.000e+00
   4.340e-01  -6.510e-01   0.000e+00
   3.617e-01  -5.787e-01   0.000e+00
   4.340e-01  -6.510e-01   0.000e+00
   5.063e-01  -6.510e-01   0.000e+00
   4.340e-01  -5.787e-01   0.000e+00
   5.063e-01  -6.510e-01   0.000e+00
   5.787e-01  -6.510e-01   0.000e+00
   5.063e-01  -5.787e-01   0.000e+00
   5.787e-01  -6.510e-01   0.000e+00
   6.510e-01  -6.510e-01   0.000e+00
   5.787e-01  -5.787e-01   0.000e+00
   6.510e-01  -6.510e-01   0.000e+00
   7.233e-01  -6.510e-01   0.000e+00
   6.510e-01  -5.787e-01   0.000e+00
   7.233e-01  -6.510e-01   0.000e+00
   7.957e-01  -6.510e-01   0.000e+00
   7.233e-01  -5.787e-01   0.000e+00
   7.957e-01  -6.510e-01   0.000e+00
   8.680e-01  -6.510e-01   0.000e+00
   7.957e-01  -5.787e-01   0.000e+00
   8.680e-01  -6.510e-01   0.000e+00
   9.403e-01  -6.510e-01   0.000e+00
   8.680e-01  -5.787e-01   0.000e+00
   9.403e-01  -6.510e-01   0.000e+00
   1.013e+00  -6.510e-01   0.000e+00
   9.403e-01  -5.787e-01   0.000e+00
   1.013e+00  -6.510e-01   0.000e+00
   1.085e+00  -6.510e-01   0.000e+00
   1.013e+00  -5.787e-01   0.000e+00
  -1.085e+00  -5.787e-01   0.000e+00
  -1.013e+00  -5.787e-01   0.000e+00
  -1.085e+00  -5.063e-01   0.000e+00
  -1.013e+00  -5.787e-01   0.000e+00
  -9.403e-01  -5.787e-01   0.000e+00
  -1.013e+00  -5.063e-01   0.000e+00
  -9.403e-01  -5.787e-01   0.000e+00
  -8.680e-01  -5.787e-01   0.000e+00
  -9.403e-01  -5.063e-01   0.000e+00
  -8.680e-01  -5.787e-01   0.000e+00
  -7.957e-01  -5.787e-01   0.000e+00
  -8.680e-01  -5.063e-01   0.000e+00
  -7.957e-01  -5.787e-01   0.000e+00
  -7.233e-01  -5.787e-01   0.000e+00
  -7.957e-01  -5.063e-01   0.000e+00
  -7.233e-01  -5.787e-01   0.000e+00
  -6.510e-01  -5.787e-01   0.000e+00
  -7.233e-01  -5.063e-01   0.000e+00
  -6.510e-01  -5.787e-01   0.000e+00
  -5.787e-01  -5.787e-01   0.000e+00
  -6.510e-01  -5.063e-01   0.000e+00
  -5.787e-01  -5.787e-01   0.000e+00
  -5.063e-01  -5.787e-01   0.000e+00
  -5.787e-01  -5.063e-01   0.000e+00
  -5.063e-01  -5.787e-01   0.000e+00
  -4.340e-01  -5.787e-01   0.000e+00
  -5.063e-01  -5.063e-01   0.000e+00
  -4.340e-01  -5.787e-01   0.000e+00
  -3.617e-01  -5.787e-01   0.000e+00
  -4.340e-01  -5.063e-01   0.000e+00
  -3.617e-01  -5.787e-01   0.000e+00
  -3.255e-01  -5.787e-01   0.000e+00
  -3.617e-01  -5.425e-01   0.000e+00
  -2.893e-01  -5.787e-01   0.000e+00
  -3.255e-01  -5.425e-01   0.000e+00
  -3.255e-01  -5.787e-01   0.000e+00
  -3.255e-01  -5.425e-01   0.000e+00
  -3.617e-01  -5.425e-01   0.000e+00
  -3.255e-01  -5.787e-01   0.000e+00
  -3.617e-01  -5.063e-01   0.000e+00
  -3.617e-01  -5.243e-01   0.000e+00
  -3.337e-01  -5.343e-01   0.000e+00
  -3.617e-01  -5.243e-01   0.000e+00
  -3.337e-01  -5.343e-01   0.000e+00
  -3.617e-01  -5.425e-01   0.000e+00
  -3.255e-01  -5.425e-01   0.000e+00
  -2.893e-01  -5.787e-01   0.000e+00
  -2.532e-01  -5.787e-01   0.000e+00
  -2.893e-01  -5.425e-01   0.000e+00
  -2.170e-01  -5.787e-01   0.000e+00
  -2.532e-01  -5.425e-01   0.000e+00
  -2.532e-01  -5.787e-01   0.000e+00
  -2.532e-01  -5.425e-01   0.000e+00
  -2.893e-01  -5.425e-01   0.000e+00
  -2.532e-01  -5.787e-01   0.000e+00
  -2.893e-01  -5.063e-01   0.000e+00
  -2.893e-01  -5.380e-01   0.000e+00
  -2.635e-01  -5.321e-01   0.000e+00
  -2.893e-01  -5.380e-01   0.000e+00
  -2.635e-01  -5.321e-01   0.000e+00
  -2.893e-01  -5.425e-01   0.000e+00
  -2.532e-01  -5.425e-01   0.000e+00
  -2.170e-01  -5.787e-01   0.000e+00
  -1.808e-01  -5.787e-01   0.000e+00
  -2.170e-01  -5.425e-01   0.000e+00
  -1.447e-01  -5.787e-01   0.000e+00
  -1.808e-01  -5.425e-01   0.000e+00
  -1.808e-01  -5.787e-01   0.000e+00
  -1.808e-01  -5.425e-01   0.000e+00
  -2.170e-01  -5.425e-01   0.000e+00
  -1.808e-01  -5.787e-01   0.000e+00
  -2.170e-01  -5.063e-01   0.000e+00
  -2.170e-01  -5.133e-01   0.000e+00
  -2.124e-01  -5.109e-01   0.000e+00
  -2.170e-01  -5.133e-01   0.000e+00
  -2.124e-01  -5.109e-01   0.000e+00
  -2.170e-01  -5.425e-01   0.000e+00
  -1.808e-01  -5.425e-01   0.000e+00
  -1.447e-01  -5.787e-01   0.000e+00
  -7.233e-02  -5.787e-01   0.000e+00
  -1.447e-01  -5.063e-01   0.000e+00
  -7.233e-02  -5.787e-01   0.000e+00
   0.000e+00  -5.787e-01   0.000e+00
  -7.233e-02  -5.063e-01   0.000e+00
   0.000e+00  -5.787e-01   0.000e+00
   7.233e-02  -5.787e-01   0.000e+00
   0.000e+00  -5.063e-01   0.000e+00
   7.233e-02  -5.787e-01   0.000e+00
   1.447e-01  -5.787e-01   0.000e+00
   7.233e-02  -5.063e-01   0.000e+00
   1.447e-01  -5.787e-01   0.000e+00
   2.170e-01  -5.787e-01   0.000e+00
   1.447e-01  -5.063e-01   0.000e+00
   2.170e-01  -5.787e-01   0.000e+00
   2.893e-01  -5.787e-01   0.000e+00
   2.170e-01  -5.063e-01   0.000e+00
   2.893e-01  -5.787e-01   0.000e+00
   3.617e-01  -5.787e-01   0.000e+00
   2.893e-01  -5.063e-01   0.000e+00
   3.617e-01  -5.787e-01   0.000e+00
   3.978e-01  -5.787e-01   0.000e+00
   3.617e-01  -5.425e-01   0.000e+00
   4.340e-01  -5.787e-01   0.000e+00
   3.978e-01  -5.425e-01   0.000e+00
   3.978e-01  -5.787e-01   0.000e+00
   3.978e-01  -5.425e-01   0.000e+00
   3.617e-01  -5.425e-01   0.000e+00
   3.978e-01  -5.787e-01   0.000e+00
   3.617e-01  -5.063e-01   0.000e+00
   3.617e-01  -5.347e-01   0.000e+00
   3.940e-01  -5.387e-01   0.000e+00
   3.617e-01  -5.347e-01   0.000e+00
   3.940e-01  -5.387e-01   0.000e+00
   3.617e-01  -5.425e-01   0.000e+00
   3.978e-01  -5.425e-01   0.000e+00
   4.340e-01  -5.787e-01   0.000e+00
   4.702e-01  -5.787e-01   0.000e+00
   4.340e-01  -5.425e-01   0.000e+00
   5.063e-01  -5.787e-01   0.000e+00
   4.702e-01  -5.425e-01   0.000e+00
   4.702e-01  -5.787e-01   0.000e+00
   4.702e-01  -5.425e-01   0.000e+00
   4.340e-01  -5.425e-01   0.000e+00
   4.702e-01  -5.787e-01   0.000e+00
   4.340e-01  -5.063e-01   0.000e+00
   4.340e-01  -5.330e-01   0.000e+00
   4.519e-01  -5.243e-01   0.000e+00
   4.340e-01  -5.330e-01   0.000e+00
   4.519e-01  -5.243e-01   0.000e+00
   4.340e-01  -5.425e-01   0.000e+00
   4.702e-01  -5.425e-01   0.000e+00
   5.063e-01  -5.787e-01   0.000e+00
   5.787e-01  -5.787e-01   0.000e+00
   5.063e-01  -5.063e-01   0.000e+00
   5.787e-01  -5.787e-01   0.000e+00
   6.510e-01  -5.787e-01   0.000e+00
   5.787e-01  -5.063e-01   0.000e+00
   6.510e-01  -5.787e-01   0.000e+00
   7.233e-01  -5.787e-01   0.000e+00
   6.510e-01  -5.063e-01   0.000e+00
   7.233e-01  -5.787e-01   0.000e+00
   7.957e-01  -5.787e-01   0.000e+00
   7.233e-01  -5.063e-01   0.000e+00
   7.957e-01  -5.787e-01   0.000e+00
   8.680e-01  -5.787e-01   0.000e+00
   7.957e-01  -5.063e-01   0.000e+00
   8.680e-01  -5.787e-01   0.000e+00
   9.403e-01  -5.787e-01   0.000e+00
   8.680e-01  -5.063e-01   0.000e+00
   9.403e-01  -5.787e-01   0.000e+00
   1.013e+00  -5.787e-01   0.000e+00
   9.403e-01  -5.063e-01   0.000e+00
   1.013e+00  -5.787e-01   0.000e+00
   1.085e+00  -5.787e-01   0.000e+00
   1.013e+00  -5.063e-01   0.000e+00
  -1.085e+00  -5.063e-01   0.000e+00
  -1.013e+00  -5.063e-01   0.000e+00
  -1.085e+00  -4.340e-01   0.000e+00
  -1.013e+00  -5.063e-01   0.000e+00
  -9.403e-01  -5.063e-01   0.000e+00
  -1.013e+00  -4.340e-01   0.000e+00
  -9.403e-01  -5.063e-01   0.000e+00
  -8.680e-01  -5.063e-01   0.000e+00
  -9.403e-01  -4.340e-01   0.000e+00
  -8.680e-01  -5.063e-01   0.000e+00
  -7.957e-01  -5.063e-01   0.000e+00
  -8.680e-01  -4.340e-01   0.000e+00
  -7.957e-01  -5.063e-01   0.000e+00
  -7.233e-01  -5.063e-01   0.000e+00
  -7.957e-01  -4.340e-01   0.000e+00
  -7.233e-01  -5.063e-01   0.000e+00
  -6.510e-01  -5.063e-01   0.000e+00
  -7.233e-01  -4.340e-01   0.000e+00
  -6.510e-01  -5.063e-01   0.000e+00
  -5.787e-01  -5.063e-01   0.000e+00
  -6.510e-01  -4.340e-01   0.000e+00
  -5.787e-01  -5.063e-01   0.000e+00
  -5.063e-01  -5.063e-01   0.000e+00
  -5.787e-01  -4.340e-01   0.000e+00
  -5.063e-01  -5.063e-01   0.000e+00
  -4.340e-01  -5.063e-01   0.000e+00
  -5.063e-01  -4.340e-01   0.000e+00
  -4.340e-01  -5.063e-01   0.000e+00
  -3.978e-01  -5.063e-01   0.000e+00
  -4.340e-01  -4.702e-01   0.000e+00
  -3.617e-01  -5.063e-01   0.000e+00
  -3.978e-01  -4.702e-01   0.000e+00
  -3.819e-01  -5.063e-01   0.000e+00
  -3.978e-01  -4.792e-01   0.000e+00
  -3.819e-01  -5.063e-01   0.000e+00
  -3.978e-01  -4.792e-01   0.000e+00
  -3.978e-01  -5.063e-01   0.000e+00
  -3.978e-01  -4.702e-01   0.000e+00
  -3.978e-01  -4.792e-01   0.000e+00
  -4.020e-01  -4.702e-01   0.000e+00
  -3.978e-01  -4.792e-01   0.000e+00
  -4.020e-01  -4.702e-01   0.000e+00
  -4.340e-01  -4.702e-01   0.000e+00
  -3.978e-01  -5.063e-01   0.000e+00
  -4.020e-01  -4.702e-01   0.000e+00
  -4.027e-01  -4.653e-01   0.000e+00
  -3.978e-01  -4.702e-01   0.000e+00
  -4.340e-01  -4.340e-01   0.000e+00
  -4.340e-01  -4.702e-01   0.000e+00
  -4.020e-01  -4.702e-01   0.000e+00
  -4.027e-01  -4.653e-01   0.000e+00
  -3.617e-01  -5.063e-01   0.000e+00
  -2.893e-01  -5.063e-01   0.000e+00
  -3.617e-01  -4.340e-01   0.000e+00
  -2.893e-01  -5.063e-01   0.000e+00
  -2.170e-01  -5.063e-01   0.000e+00
  -2.893e-01  -4.340e-01   0.000e+00
  -2.170e-01  -5.063e-01   0.000e+00
  -2.049e-01  -5.063e-01   0.000e+00
  -1.898e-01  -4.974e-01   0.000e+00
  -2.170e-01  -4.702e-01   0.000e+00
  -2.049e-01  -5.063e-01   0.000e+00
  -1.898e-01  -4.974e-01   0.000e+00
  -1.808e-01  -5.063e-01   0.000e+00
  -1.685e-01  -4.825e-01   0.000e+00
  -1.808e-01  -4.912e-01   0.000e+00
  -1.808e-01  -4.702e-01   0.000e+00
  -1.447e-01  -5.063e-01   0.000e+00
  -1.685e-01  -4.825e-01   0.000e+00
  -1.808e-01  -4.912e-01   0.000e+00
  -1.808e-01  -5.063e-01   0.000e+00
  -1.808e-01  -4.702e-01   0.000e+00
  -2.170e-01  -4.702e-01   0.000e+00
  -1.898e-01  -4.974e-01   0.000e+00
  -1.808e-01  -4.912e-01   0.000e+00
  -1.898e-01  -4.974e-01   0.000e+00
  -1.808e-01  -4.912e-01   0.000e+00
  -1.808e-01  -5.063e-01   0.000e+00
  -2.170e-01  -4.340e-01   0.000e+00
  -2.170e-01  -4.702e-01   0.000e+00
  -1.808e-01  -4.702e-01   0.000e+00
  -1.447e-01  -5.063e-01   0.000e+00
  -1.085e-01  -5.063e-01   0.000e+00
  -1.447e-01  -4.702e-01   0.000e+00
  -7.233e-02  -5.063e-01   0.000e+00
  -1.085e-01  -4.702e-01   0.000e+00
  -1.085e-01  -5.063e-01   0.000e+00
  -1.085e-01  -4.702e-01   0.000e+00
  -1.447e-01  -4.702e-01   0.000e+00
  -1.085e-01  -5.063e-01   0.000e+00
  -1.447e-01  -4.340e-01   0.000e+00
  -1.447e-01  -4.633e-01   0.000e+00
  -1.291e-01  -4.496e-01   0.000e+00
  -1.447e-01  -4.633e-01   0.000e+00
  -1.291e-01  -4.496e-01   0.000e+00
  -1.447e-01  -4.702e-01   0.000e+00
  -1.085e-01  -4.702e-01   0.000e+00
  -7.233e-02  -5.063e-01   0.000e+00
   0.000e+00  -5.063e-01   0.000e+00
  -7.233e-02  -4.340e-01   0.000e+00
   0.000e+00  -5.063e-01   0.000e+00
   7.233e-02  -5.063e-01   0.000e+00
   0.000e+00  -4.340e-01   0.000e+00
   7.233e-02  -5.063e-01   0.000e+00
   1.447e-01  -5.063e-01   0.000e+00
   7.233e-02  -4.340e-01   0.000e+00
   1.447e-01  -5.063e-01   0.000e+00
   2.170e-01  -5.063e-01   0.000e+00
   1.447e-01  -4.340e-01   0.000e+00
   2.170e-01  -5.063e-01   0.000e+00
   2.532e-01  -5.063e-01   0.000e+00
   2.170e-01  -4.702e-01   0.000e+00
   2.805e-01  -4.975e-01   0.000e+00
   2.532e-01  -4.788e-01   0.000e+00
   2.532e-01  -4.702e-01   0.000e+00
   2.893e-01  -5.063e-01   0.000e+00
   2.805e-01  -4.975e-01   0.000e+00
   2.532e-01  -4.788e-01   0.000e+00
   2.532e-01  -5.063e-01   0.000e+00
   2.532e-01  -4.702e-01   0.000e+00
   2.532e-01  -4.788e-01   0.000e+00
   2.424e-01  -4.702e-01   0.000e+00
   2.532e-01  -4.788e-01   0.000e+00
   2.424e-01  -4.702e-01   0.000e+00
   2.170e-01  -4.702e-01   0.000e+00
   2.532e-01  -5.063e-01   0.000e+00
   2.170e-01  -4.340e-01   0.000e+00
   2.424e-01  -4.702e-01   0.000e+00
   2.170e-01  -4.479e-01   0.000e+00
   2.532e-01  -4.702e-01   0.000e+00
   2.424e-01  -4.702e-01   0.000e+00
   2.170e-01  -4.479e-01   0.000e+00
   2.170e-01  -4.702e-01   0.000e+00
   2.940e-01  -5.063e-01   0.000e+00
   2.893e-01  -5.037e-01   0.000e+00
   3.255e-01  -5.063e-01   0.000e+00
   2.893e-01  -4.702e-01   0.000e+00
   2.893e-01  -5.063e-01   0.000e+00
   2.940e-01  -5.063e-01   0.000e+00
   2.893e-01  -5.037e-01   0.000e+00
   3.617e-01  -5.063e-01   0.000e+00
   3.255e-01  -4.702e-01   0.000e+00
   3.255e-01  -5.063e-01   0.000e+00
   3.255e-01  -4.702e-01   0.000e+00
   2.893e-01  -4.702e-01   0.000e+00
   3.255e-01  -5.063e-01   0.000e+00
   2.893e-01  -4.340e-01   0.000e+00
   2.893e-01  -4.702e-01   0.000e+00
   3.255e-01  -4.702e-01   0.000e+00
   3.617e-01  -5.063e-01   0.000e+00
   4.340e-01  -5.063e-01   0.000e+00
   3.617e-01  -4.340e-01   0.000e+00
   4.340e-01  -5.063e-01   0.000e+00
   4.702e-01  -5.063e-01   0.000e+00
   4.340e-01  -4.702e-01   0.000e+00
   4.852e-01  -4.852e-01   0.000e+00
   4.722e-01  -5.063e-01   0.000e+00
   4.702e-01  -4.702e-01   0.000e+00
   4.702e-01  -5.063e-01   0.000e+00
   5.063e-01  -5.063e-01   0.000e+00
   4.852e-01  -4.852e-01   0.000e+00
   4.722e-01  -5.063e-01   0.000e+00
   4.702e-01  -4.702e-01   0.000e+00
   4.340e-01  -4.702e-01   0.000e+00
   4.702e-01  -5.063e-01   0.000e+00
   4.340e-01  -4.340e-01   0.000e+00
   4.340e-01  -4.702e-01   0.000e+00
   4.702e-01  -4.702e-01   0.000e+00
   5.063e-01  -5.063e-01   0.000e+00
   5.787e-01  -5.063e-01   0.000e+00
   5.063e-01  -4.340e-01   0.000e+00
   5.787e-01  -5.063e-01   0.000e+00
   6.510e-01  -5.063e-01   0.000e+00
   5.787e-01  -4.340e-01   0.000e+00
   6.510e-01  -5.063e-01   0.000e+00
   7.233e-01  -5.063e-01   0.000e+00
   6.510e-01  -4.340e-01   0.000e+00
   7.233e-01  -5.063e-01   0.000e+00
   7.957e-01  -5.063e-01   0.000e+00
   7.233e-01  -4.340e-01   0.000e+00
   7.957e-01  -5.063e-01   0.000e+00
   8.680e-01  -5.063e-01   0.000e+00
   7.957e-01  -4.340e-01   0.000e+00
   8.680e-01  -5.063e-01   0.000e+00
   9.403e-01  -5.063e-01   0.000e+00
   8.680e-01  -4.340e-01   0.000e+00
   9.403e-01  -5.063e-01   0.000e+00
   1.013e+00  -5.063e-01   0.000e+00
   9.403e-01  -4.340e-01   0.000e+00
   1.013e+00  -5.063e-01   0.000e+00
   1.085e+00  -5.063e-01   0.000e+00
   1.013e+00  -4.340e-01   0.000e+00
  -1.085e+00  -4.340e-01   0.000e+00
  -1.013e+00  -4.340e-01   0.000e+00
  -1.085e+00  -3.617e-01   0.000e+00
  -1.013e+00  -4.340e-01   0.000e+00
  -9.403e-01  -4.340e-01   0.000e+00
  -1.013e+00  -3.617e-01   0.000e+00
  -9.403e-01  -4.340e-01   0.000e+00
  -8.680e-01  -4.340e-01   0.000e+00
  -9.403e-01  -3.617e-01   0.000e+00
  -8.680e-01  -4.340e-01   0.000e+00
  -7.957e-01  -4.340e-01   0.000e+00
  -8.680e-01  -3.617e-01   0.000e+00
  -7.957e-01  -4.340e-01   0.000e+00
  -7.233e-01  -4.340e-01   0.000e+00
  -7.957e-01  -3.617e-01   0.000e+00
  -7.233e-01  -4.340e-01   0.000e+00
  -6.510e-01  -4.340e-01   0.000e+00
  -7.233e-01  -3.617e-01   0.000e+00
  -6.510e-01  -4.340e-01   0.000e+00
  -5.787e-01  -4.340e-01   0.000e+00
  -6.510e-01  -3.617e-01   0.000e+00
  -5.787e-01  -4.340e-01   0.000e+00
  -5.063e-01  -4.340e-01   0.000e+00
  -5.787e-01  -3.617e-01   0.000e+00
  -5.063e-01  -4.340e-01   0.000e+00
  -4.340e-01  -4.340e-01   0.000e+00
  -5.063e-01  -3.617e-01   0.000e+00
  -4.086e-01  -4.340e-01   0.000e+00
  -4.085e-01  -4.234e-01   0.000e+00
  -3.978e-01  -4.340e-01   0.000e+00
  -4.340e-01  -4.340e-01   0.000e+00
  -4.086e-01  -4.340e-01   0.000e+00
  -4.085e-01  -4.234e-01   0.000e+00
  -4.340e-01  -3.978e-01   0.000e+00
  -3.617e-01  -4.340e-01   0.000e+00
  -3.978e-01  -3.978e-01   0.000e+00
  -3.978e-01  -4.340e-01   0.000e+00
  -3.978e-01  -3.978e-01   0.000e+00
  -4.085e-01  -4.234e-01   0.000e+00
  -4.080e-01  -3.978e-01   0.000e+00
  -3.978e-01  -4.340e-01   0.000e+00
  -4.085e-01  -4.234e-01   0.000e+00
  -4.080e-01  -3.978e-01   0.000e+00
  -4.340e-01  -3.978e-01   0.000e+00
  -4.080e-01  -3.978e-01   0.000e+00
  -4.068e-01  -3.889e-01   0.000e+00
  -3.978e-01  -3.978e-01   0.000e+00
  -4.340e-01  -3.617e-01   0.000e+00
  -4.340e-01  -3.978e-01   0.000e+00
  -4.080e-01  -3.978e-01   0.000e+00
  -4.068e-01  -3.889e-01   0.000e+00
  -3.617e-01  -4.340e-01   0.000e+00
  -2.893e-01  -4.340e-01   0.000e+00
  -3.617e-01  -3.617e-01   0.000e+00
  -2.893e-01  -4.340e-01   0.000e+00
  -2.170e-01  -4.340e-01   0.000e+00
  -2.893e-01  -3.617e-01   0.000e+00
  -2.170e-01  -4.340e-01   0.000e+00
  -1.447e-01  -4.340e-01   0.000e+00
  -2.170e-01  -3.617e-01   0.000e+00
  -1.447e-01  -4.340e-01   0.000e+00
  -1.130e-01  -4.340e-01   0.000e+00
  -1.107e-01  -4.318e-01   0.000e+00
  -1.447e-01  -3.978e-01   0.000e+00
  -1.130e-01  -4.340e-01   0.000e+00
  -1.107e-01  -4.318e-01   0.000e+00
  -1.085e-01  -4.340e-01   0.000e+00
  -9.311e-02  -4.132e-01   0.000e+00
  -1.085e-01  -4.294e-01   0.000e+00
  -1.085e-01  -3.978e-01   0.000e+00
  -7.233e-02  -4.340e-01   0.000e+00
  -9.311e-02  -4.132e-01   0.000e+00
  -1.085e-01  -4.294e-01   0.000e+00
  -1.085e-01  -4.340e-01   0.000e+00
  -1.085e-01  -3.978e-01   0.000e+00
  -1.447e-01  -3.978e-01   0.000e+00
  -1.107e-01  -4.318e-01   0.000e+00
  -1.085e-01  -4.294e-01   0.000e+00
  -1.107e-01  -4.318e-01   0.000e+00
  -1.085e-01  -4.294e-01   0.000e+00
  -1.085e-01  -4.340e-01   0.000e+00
  -1.447e-01  -3.617e-01   0.000e+00
  -1.447e-01  -3.978e-01   0.000e+00
  -1.085e-01  -3.978e-01   0.000e+00
  -7.233e-02  -4.340e-01   0.000e+00
  -3.617e-02  -4.340e-01   0.000e+00
  -7.233e-02  -3.978e-01   0.000e+00
   0.000e+00  -4.340e-01   0.000e+00
  -3.617e-02  -3.978e-01   0.000e+00
  -3.617e-02  -4.340e-01   0.000e+00
  -3.617e-02  -3.978e-01   0.000e+00
  -7.233e-02  -3.978e-01   0.000e+00
  -3.617e-02  -4.340e-01   0.000e+00
  -7.233e-02  -3.617e-01   0.000e+00
  -7.233e-02  -3.894e-01   0.000e+00
  -5.981e-02  -3.742e-01   0.000e+00
  -7.233e-02  -3.894e-01   0.000e+00
  -5.981e-02  -3.742e-01   0.000e+00
  -7.233e-02  -3.978e-01   0.000e+00
  -3.617e-02  -3.978e-01   0.000e+00
   0.000e+00  -4.340e-01   0.000e+00
   7.233e-02  -4.340e-01   0.000e+00
   0.000e+00  -3.617e-01   0.000e+00
   7.233e-02  -4.340e-01   0.000e+00
   1.447e-01  -4.340e-01   0.000e+00
   7.233e-02  -3.617e-01   0.000e+00
   1.447e-01  -4.340e-01   0.000e+00
   1.808e-01  -4.340e-01   0.000e+00
   1.447e-01  -3.978e-01   0.000e+00
   2.170e-01  -4.340e-01   0.000e+00
   1.808e-01  -3.978e-01   0.000e+00
   2.026e-01  -4.340e-01   0.000e+00
   1.808e-01  -4.112e-01   0.000e+00
   2.026e-01  -4.340e-01   0.000e+00
   1.808e-01  -4.112e-01   0.000e+00
   1.808e-01  -4.340e-01   0.000e+00
   1.808e-01  -3.978e-01   0.000e+00
   1.808e-01  -4.112e-01   0.000e+00
   1.690e-01  -3.978e-01   0.000e+00
   1.808e-01  -4.112e-01   0.000e+00
   1.690e-01  -3.978e-01   0.000e+00
   1.447e-01  -3.978e-01   0.000e+00
   1.808e-01  -4.340e-01   0.000e+00
   1.447e-01  -3.617e-01   0.000e+00
   1.690e-01  -3.978e-01   0.000e+00
   1.447e-01  -3.683e-01   0.000e+00
   1.808e-01  -3.978e-01   0.000e+00
   1.690e-01  -3.978e-01   0.000e+00
   1.447e-01  -3.683e-01   0.000e+00
   1.447e-01  -3.978e-01   0.000e+00
   2.170e-01  -4.340e-01   0.000e+00
   2.893e-01  -4.340e-01   0.000e+00
   2.170e-01  -3.617e-01   0.000e+00
   2.893e-01  -4.340e-01   0.000e+00
   3.617e-01  -4.340e-01   0.000e+00
   2.893e-01  -3.617e-01   0.000e+00
   3.617e-01  -4.340e-01   0.000e+00
   4.340e-01  -4.340e-01   0.000e+00
   3.617e-01  -3.617e-01   0.000e+00
   4.340e-01  -4.340e-01   0.000e+00
   4.702e-01  -4.340e-01   0.000e+00
   4.340e-01  -3.978e-01   0.000e+00
   4.979e-01  -4.256e-01   0.000e+00
   4.981e-01  -4.340e-01   0.000e+00
   4.702e-01  -3.978e-01   0.000e+00
   4.702e-01  -4.340e-01   0.000e+00
   5.063e-01  -4.340e-01   0.000e+00
   4.979e-01  -4.256e-01   0.000e+00
   4.981e-01  -4.340e-01   0.000e+00
   4.702e-01  -3.978e-01   0.000e+00
   4.340e-01  -3.978e-01   0.000e+00
   4.702e-01  -4.340e-01   0.000e+00
   4.340e-01  -3.617e-01   0.000e+00
   4.340e-01  -3.978e-01   0.000e+00
   4.702e-01  -3.978e-01   0.000e+00
   5.063e-01  -4.340e-01   0.000e+00
   5.787e-01  -4.340e-01   0.000e+00
   5.063e-01  -3.617e-01   0.000e+00
   5.787e-01  -4.340e-01   0.000e+00
   6.510e-01  -4.340e-01   0.000e+00
   5.787e-01  -3.617e-01   0.000e+00
   6.510e-01  -4.340e-01   0.000e+00
   7.233e-01  -4.340e-01   0.000e+00
   6.510e-01  -3.617e-01   0.000e+00
   7.233e-01  -4.340e-01   0.000e+00
   7.957e-01  -4.340e-01   0.000e+00
   7.233e-01  -3.617e-01   0.000e+00
   7.957e-01  -4.340e-01   0.000e+00
   8.680e-01  -4.340e-01   0.000e+00
   7.957e-01  -3.617e-01   0.000e+00
   8.680e-01  -4.340e-01   0.000e+00
   9.403e-01  -4.340e-01   0.000e+00
   8.680e-01  -3.617e-01   0.000e+00
   9.403e-01  -4.340e-01   0.000e+00
   1.013e+00  -4.340e-01   0.000e+00
   9.403e-01  -3.617e-01   0.000e+00
   1.013e+00  -4.340e-01   0.000e+00
   1.085e+00  -4.340e-01   0.000e+00
   1.013e+00  -3.617e-01   0.000e+00
  -1.085e+00  -3.617e-01   0.000e+00
  -1.013e+00  -3.617e-01   0.000e+00
  -1.085e+00  -2.893e-01   0.000e+00
  -1.013e+00  -3.617e-01   0.000e+00
  -9.403e-01  -3.617e-01   0.000e+00
  -1.013e+00  -2.893e-01   0.000e+00
  -9.403e-01  -3.617e-01   0.000e+00
  -8.680e-01  -3.617e-01   0.000e+00
  -9.403e-01  -2.893e-01   0.000e+00
  -8.680e-01  -3.617e-01   0.000e+00
  -7.957e-01  -3.617e-01   0.000e+00
  -8.680e-01  -2.893e-01   0.000e+00
  -7.957e-01  -3.617e-01   0.000e+00
  -7.233e-01  -3.617e-01   0.000e+00
  -7.957e-01  -2.893e-01   0.000e+00
  -7.233e-01  -3.617e-01   0.000e+00
  -6.510e-01  -3.617e-01   0.000e+00
  -7.233e-01  -2.893e-01   0.000e+00
  -6.510e-01  -3.617e-01   0.000e+00
  -5.787e-01  -3.617e-01   0.000e+00
  -6.510e-01  -2.893e-01   0.000e+00
  -5.787e-01  -3.617e-01   0.000e+00
  -5.063e-01  -3.617e-01   0.000e+00
  -5.787e-01  -2.893e-01   0.000e+00
  -5.063e-01  -3.617e-01   0.000e+00
  -4.340e-01  -3.617e-01   0.000e+00
  -5.063e-01  -2.893e-01   0.000e+00
  -4.023e-01  -3.617e-01   0.000e+00
  -4.014e-01  -3.581e-01   0.000e+00
  -3.978e-01  -3.617e-01   0.000e+00
  -4.340e-01  -3.617e-01   0.000e+00
  -4.023e-01  -3.617e-01   0.000e+00
  -4.014e-01  -3.581e-01   0.000e+00
  -4.340e-01  -3.255e-01   0.000e+00
  -3.617e-01  -3.617e-01   0.000e+00
  -3.936e-01  -3.297e-01   0.000e+00
  -3.978e-01  -3.453e-01   0.000e+00
  -3.978e-01  -3.617e-01   0.000e+00
  -3.936e-01  -3.297e-01   0.000e+00
  -3.978e-01  -3.453e-01   0.000e+00
  -3.978e-01  -3.255e-01   0.000e+00
  -4.014e-01  -3.581e-01   0.000e+00
  -3.978e-01  -3.453e-01   0.000e+00
  -3.978e-01  -3.617e-01   0.000e+00
  -3.978e-01  -3.255e-01   0.000e+00
  -4.340e-01  -3.255e-01   0.000e+00
  -4.014e-01  -3.581e-01   0.000e+00
  -3.978e-01  -3.453e-01   0.000e+00
  -4.340e-01  -2.893e-01   0.000e+00
  -4.340e-01  -3.255e-01   0.000e+00
  -3.978e-01  -3.255e-01   0.000e+00
  -3.617e-01  -3.617e-01   0.000e+00
  -2.893e-01  -3.617e-01   0.000e+00
  -3.617e-01  -2.893e-01   0.000e+00
  -2.893e-01  -3.617e-01   0.000e+00
  -2.170e-01  -3.617e-01   0.000e+00
  -2.893e-01  -2.893e-01   0.000e+00
  -2.170e-01  -3.617e-01   0.000e+00
  -1.447e-01  -3.617e-01   0.000e+00
  -2.170e-01  -2.893e-01   0.000e+00
  -1.447e-01  -3.617e-01   0.000e+00
  -7.233e-02  -3.617e-01   0.000e+00
  -1.447e-01  -2.893e-01   0.000e+00
  -7.233e-02  -3.617e-01   0.000e+00
  -5.002e-02  -3.617e-01   0.000e+00
  -4.397e-02  -3.539e-01   0.000e+00
  -7.233e-02  -3.255e-01   0.000e+00
  -5.002e-02  -3.617e-01   0.000e+00
  -4.397e-02  -3.539e-01   0.000e+00
  -3.617e-02  -3.617e-01   0.000e+00
  -2.854e-02  -3.331e-01   0.000e+00
  -3.617e-02  -3.434e-01   0.000e+00
  -3.617e-02  -3.255e-01   0.000e+00
   0.000e+00  -3.617e-01   0.000e+00
  -2.854e-02  -3.331e-01   0.000e+00
  -3.617e-02  -3.434e-01   0.000e+00
  -3.617e-02  -3.617e-01   0.000e+00
  -3.617e-02  -3.255e-01   0.000e+00
  -7.233e-02  -3.255e-01   0.000e+00
  -4.397e-02  -3.539e-01   0.000e+00
  -3.617e-02  -3.434e-01   0.000e+00
  -4.397e-02  -3.539e-01   0.000e+00
  -3.617e-02  -3.434e-01   0.000e+00
  -3.617e-02  -3.617e-01   0.000e+00
  -7.233e-02  -2.893e-01   0.000e+00
  -7.233e-02  -3.255e-01   0.000e+00
  -3.617e-02  -3.255e-01   0.000e+00
   0.000e+00  -3.617e-01   0.000e+00
   3.617e-02  -3.617e-01   0.000e+00
   0.000e+00  -3.255e-01   0.000e+00
   7.233e-02  -3.617e-01   0.000e+00
   3.617e-02  -3.255e-01   0.000e+00
   3.617e-02  -3.617e-01   0.000e+00
   3.617e-02  -3.255e-01   0.000e+00
   0.000e+00  -3.255e-01   0.000e+00
   3.617e-02  -3.617e-01   0.000e+00
   0.000e+00  -2.893e-01   0.000e+00
   0.000e+00  -2.940e-01   0.000e+00
   1.966e-03  -2.913e-01   0.000e+00
   0.000e+00  -2.940e-01   0.000e+00
   1.966e-03  -2.913e-01   0.000e+00
   0.000e+00  -3.255e-01   0.000e+00
   3.617e-02  -3.255e-01   0.000e+00
   7.233e-02  -3.617e-01   0.000e+00
   1.085e-01  -3.617e-01   0.000e+00
   7.233e-02  -3.255e-01   0.000e+00
   1.447e-01  -3.617e-01   0.000e+00
   1.241e-01  -3.411e-01   0.000e+00
   1.394e-01  -3.617e-01   0.000e+00
   1.241e-01  -3.411e-01   0.000e+00
   1.394e-01  -3.617e-01   0.000e+00
   1.085e-01  -3.255e-01   0.000e+00
   1.085e-01  -3.617e-01   0.000e+00
   1.085e-01  -3.255e-01   0.000e+00
   7.233e-02  -3.255e-01   0.000e+00
   1.085e-01  -3.617e-01   0.000e+00
   7.233e-02  -2.893e-01   0.000e+00
   7.233e-02  -3.255e-01   0.000e+00
   1.085e-01  -3.255e-01   0.000e+00
   1.447e-01  -3.617e-01   0.000e+00
   2.170e-01  -3.617e-01   0.000e+00
   1.447e-01  -2.893e-01   0.000e+00
   2.170e-01  -3.617e-01   0.000e+00
   2.893e-01  -3.617e-01   0.000e+00
   2.170e-01  -2.893e-01   0.000e+00
   2.893e-01  -3.617e-01   0.000e+00
   3.617e-01  -3.617e-01   0.000e+00
   2.893e-01  -2.893e-01   0.000e+00
   3.617e-01  -3.617e-01   0.000e+00
   4.340e-01  -3.617e-01   0.000e+00
   3.617e-01  -2.893e-01   0.000e+00
   4.340e-01  -3.617e-01   0.000e+00
   4.702e-01  -3.617e-01   0.000e+00
   4.340e-01  -3.255e-01   0.000e+00
   4.859e-01  -3.412e-01   0.000e+00
   4.917e-01  -3.617e-01   0.000e+00
   4.702e-01  -3.255e-01   0.000e+00
   4.702e-01  -3.617e-01   0.000e+00
   5.063e-01  -3.617e-01   0.000e+00
   4.859e-01  -3.412e-01   0.000e+00
   4.917e-01  -3.617e-01   0.000e+00
   4.702e-01  -3.255e-01   0.000e+00
   4.340e-01  -3.255e-01   0.000e+00
   4.702e-01  -3.617e-01   0.000e+00
   4.340e-01  -2.893e-01   0.000e+00
   4.340e-01  -3.255e-01   0.000e+00
   4.702e-01  -3.255e-01   0.000e+00
   5.063e-01  -3.617e-01   0.000e+00
   5.787e-01  -3.617e-01   0.000e+00
   5.063e-01  -2.893e-01   0.000e+00
   5.787e-01  -3.617e-01   0.000e+00
   6.510e-01  -3.617e-01   0.000e+00
   5.787e-01  -2.893e-01   0.000e+00
   6.510e-01  -3.617e-01   0.000e+00
   7.233e-01  -3.617e-01   0.000e+00
   6.510e-01  -2.893e-01   0.000e+00
   7.233e-01  -3.617e-01   0.000e+00
   7.957e-01  -3.617e-01   0.000e+00
   7.233e-01  -2.893e-01   0.000e+00
   7.957e-01  -3.617e-01   0.000e+00
   8.680e-01  -3.617e-01   0.000e+00
   7.957e-01  -2.893e-01   0.000e+00
   8.680e-01  -3.617e-01   0.000e+00
   9.403e-01  -3.617e-01   0.000e+00
   8.680e-01  -2.893e-01   0.000e+00
   9.403e-01  -3.617e-01   0.000e+00
   1.013e+00  -3.617e-01   0.000e+00
   9.403e-01  -2.893e-01   0.000e+00
   1.013e+00  -3.617e-01   0.000e+00
   1.085e+00  -3.617e-01   0.000e+00
   1.013e+00  -2.893e-01   0.000e+00
  -1.085e+00  -2.893e-01   0.000e+00
  -1.013e+00  -2.893e-01   0.000e+00
  -1.085e+00  -2.170e-01   0.000e+00
  -1.013e+00  -2.893e-01   0.000e+00
  -9.403e-01  -2.893e-01   0.000e+00
  -1.013e+00  -2.170e-01   0.000e+00
  -9.403e-01  -2.893e-01   0.000e+00
  -8.680e-01  -2.893e-01   0.000e+00
  -9.403e-01  -2.170e-01   0.000e+00
  -8.680e-01  -2.893e-01   0.000e+00
  -7.957e-01  -2.893e-01   0.000e+00
  -8.680e-01  -2.170e-01   0.000e+00
  -7.957e-01  -2.893e-01   0.000e+00
  -7.233e-01  -2.893e-01   0.000e+00
  -7.957e-01  -2.170e-01   0.000e+00
  -7.233e-01  -2.893e-01   0.000e+00
  -6.510e-01  -2.893e-01   0.000e+00
  -7.233e-01  -2.170e-01   0.000e+00
  -6.510e-01  -2.893e-01   0.000e+00
  -5.787e-01  -2.893e-01   0.000e+00
  -6.510e-01  -2.170e-01   0.000e+00
  -5.787e-01  -2.893e-01   0.000e+00
  -5.063e-01  -2.893e-01   0.000e+00
  -5.787e-01  -2.170e-01   0.000e+00
  -5.063e-01  -2.893e-01   0.000e+00
  -4.340e-01  -2.893e-01   0.000e+00
  -5.063e-01  -2.170e-01   0.000e+00
  -4.340e-01  -2.893e-01   0.000e+00
  -3.978e-01  -2.893e-01   0.000e+00
  -4.340e-01  -2.532e-01   0.000e+00
  -3.617e-01  -2.893e-01   0.000e+00
  -3.735e-01  -2.775e-01   0.000e+00
  -3.787e-01  -2.893e-01   0.000e+00
  -3.735e-01  -2.775e-01   0.000e+00
  -3.787e-01  -2.893e-01   0.000e+00
  -3.978e-01  -2.532e-01   0.000e+00
  -3.978e-01  -2.893e-01   0.000e+00
  -3.978e-01  -2.532e-01   0.000e+00
  -4.340e-01  -2.532e-01   0.000e+00
  -3.978e-01  -2.893e-01   0.000e+00
  -4.340e-01  -2.170e-01   0.000e+00
  -4.340e-01  -2.532e-01   0.000e+00
  -3.978e-01  -2.532e-01   0.000e+00
  -3.617e-01  -2.893e-01   0.000e+00
  -3.255e-01  -2.893e-01   0.000e+00
  -3.617e-01  -2.532e-01   0.000e+00
  -2.893e-01  -2.893e-01   0.000e+00
  -3.255e-01  -2.532e-01   0.000e+00
  -3.255e-01  -2.893e-01   0.000e+00
  -3.255e-01  -2.532e-01   0.000e+00
  -3.617e-01  -2.532e-01   0.000e+00
  -3.255e-01  -2.893e-01   0.000e+00
  -3.617e-01  -2.528e-01   0.000e+00
  -3.491e-01  -2.295e-01   0.000e+00
  -3.617e-01  -2.532e-01   0.000e+00
  -3.255e-01  -2.532e-01   0.000e+00
  -3.617e-01  -2.170e-01   0.000e+00
  -3.617e-01  -2.528e-01   0.000e+00
  -3.491e-01  -2.295e-01   0.000e+00
  -2.893e-01  -2.893e-01   0.000e+00
  -2.170e-01  -2.893e-01   0.000e+00
  -2.893e-01  -2.170e-01   0.000e+00
  -2.170e-01  -2.893e-01   0.000e+00
  -1.447e-01  -2.893e-01   0.000e+00
  -2.170e-01  -2.170e-01   0.000e+00
  -1.447e-01  -2.893e-01   0.000e+00
  -7.233e-02  -2.893e-01   0.000e+00
  -1.447e-01  -2.170e-01   0.000e+00
  -7.233e-02  -2.893e-01   0.000e+00
   0.000e+00  -2.893e-01   0.000e+00
  -7.233e-02  -2.170e-01   0.000e+00
   0.000e+00  -2.893e-01   0.000e+00
   3.542e-03  -2.893e-01   0.000e+00
   1.823e-02  -2.714e-01   0.000e+00
   0.000e+00  -2.532e-01   0.000e+00
   3.542e-03  -2.893e-01   0.000e+00
   1.823e-02  -2.714e-01   0.000e+00
   3.617e-02  -2.893e-01   0.000e+00
   4.542e-02  -2.624e-01   0.000e+00
   3.617e-02  -2.578e-01   0.000e+00
   3.617e-02  -2.532e-01   0.000e+00
   7.233e-02  -2.893e-01   0.000e+00
   4.542e-02  -2.624e-01   0.000e+00
   3.617e-02  -2.578e-01   0.000e+00
   3.617e-02  -2.893e-01   0.000e+00
   3.617e-02  -2.532e-01   0.000e+00
   0.000e+00  -2.532e-01   0.000e+00
   1.823e-02  -2.714e-01   0.000e+00
   3.617e-02  -2.578e-01   0.000e+00
   1.823e-02  -2.714e-01   0.000e+00
   3.617e-02  -2.578e-01   0.000e+00
   3.617e-02  -2.893e-01   0.000e+00
   0.000e+00  -2.170e-01   0.000e+00
   0.000e+00  -2.532e-01   0.000e+00
   3.617e-02  -2.532e-01   0.000e+00
   8.586e-02  -2.893e-01   0.000e+00
   7.233e-02  -2.735e-01   0.000e+00
   1.085e-01  -2.893e-01   0.000e+00
   7.233e-02  -2.532e-01   0.000e+00
   7.233e-02  -2.893e-01   0.000e+00
   8.586e-02  -2.893e-01   0.000e+00
   7.233e-02  -2.735e-01   0.000e+00
   1.447e-01  -2.893e-01   0.000e+00
   1.085e-01  -2.532e-01   0.000e+00
   1.085e-01  -2.893e-01   0.000e+00
   1.085e-01  -2.532e-01   0.000e+00
   7.233e-02  -2.532e-01   0.000e+00
   1.085e-01  -2.893e-01   0.000e+00
   7.233e-02  -2.170e-01   0.000e+00
   7.233e-02  -2.532e-01   0.000e+00
   1.085e-01  -2.532e-01   0.000e+00
   1.447e-01  -2.893e-01   0.000e+00
   2.170e-01  -2.893e-01   0.000e+00
   1.447e-01  -2.170e-01   0.000e+00
   2.170e-01  -2.893e-01   0.000e+00
   2.893e-01  -2.893e-01   0.000e+00
   2.170e-01  -2.170e-01   0.000e+00
   2.893e-01  -2.893e-01   0.000e+00
   3.617e-01  -2.893e-01   0.000e+00
   2.893e-01  -2.170e-01   0.000e+00
   3.617e-01  -2.893e-01   0.000e+00
   4.340e-01  -2.893e-01   0.000e+00
   3.617e-01  -2.170e-01   0.000e+00
   4.340e-01  -2.893e-01   0.000e+00
   4.682e-01  -2.893e-01   0.000e+00
   4.663e-01  -2.855e-01   0.000e+00
   4.340e-01  -2.532e-01   0.000e+00
   4.682e-01  -2.893e-01   0.000e+00
   4.663e-01  -2.855e-01   0.000e+00
   4.702e-01  -2.893e-01   0.000e+00
   5.063e-01  -2.893e-01   0.000e+00
   4.702e-01  -2.532e-01   0.000e+00
   4.702e-01  -2.893e-01   0.000e+00
   4.663e-01  -2.855e-01   0.000e+00
   4.512e-01  -2.532e-01   0.000e+00
   4.340e-01  -2.532e-01   0.000e+00
   4.702e-01  -2.532e-01   0.000e+00
   4.663e-01  -2.855e-01   0.000e+00
   4.512e-01  -2.532e-01   0.000e+00
   4.702e-01  -2.893e-01   0.000e+00
   4.512e-01  -2.532e-01   0.000e+00
   4.340e-01  -2.217e-01   0.000e+00
   4.340e-01  -2.532e-01   0.000e+00
   4.340e-01  -2.170e-01   0.000e+00
   4.512e-01  -2.532e-01   0.000e+00
   4.340e-01  -2.217e-01   0.000e+00
   4.702e-01  -2.532e-01   0.000e+00
   5.063e-01  -2.893e-01   0.000e+00
   5.787e-01  -2.893e-01   0.000e+00
   5.063e-01  -2.170e-01   0.000e+00
   5.787e-01  -2.893e-01   0.000e+00
   6.510e-01  -2.893e-01   0.000e+00
   5.787e-01  -2.170e-01   0.000e+00
   6.510e-01  -2.893e-01   0.000e+00
   7.233e-01  -2.893e-01   0.000e+00
   6.510e-01  -2.170e-01   0.000e+00
   7.233e-01  -2.893e-01   0.000e+00
   7.957e-01  -2.893e-01   0.000e+00
   7.233e-01  -2.170e-01   0.000e+00
   7.957e-01  -2.893e-01   0.000e+00
   8.680e-01  -2.893e-01   0.000e+00
   7.957e-01  -2.170e-01   0.000e+00
   8.680e-01  -2.893e-01   0.000e+00
   9.403e-01  -2.893e-01   0.000e+00
   8.680e-01  -2.170e-01   0.000e+00
   9.403e-01  -2.893e-01   0.000e+00
   1.013e+00  -2.893e-01   0.000e+00
   9.403e-01  -2.170e-01   0.000e+00
   1.013e+00  -2.893e-01   0.000e+00
   1.085e+00  -2.893e-01   0.000e+00
   1.013e+00  -2.170e-01   0.000e+00
  -1.085e+00  -2.170e-01   0.000e+00
  -1.013e+00  -2.170e-01   0.000e+00
  -1.085e+00  -1.447e-01   0.000e+00
  -1.013e+00  -2.170e-01   0.000e+00
  -9.403e-01  -2.170e-01   0.000e+00
  -1.013e+00  -1.447e-01   0.000e+00
  -9.403e-01  -2.170e-01   0.000e+00
  -8.680e-01  -2.170e-01   0.000e+00
  -9.403e-01  -1.447e-01   0.000e+00
  -8.680e-01  -2.170e-01   0.000e+00
  -7.957e-01  -2.170e-01   0.000e+00
  -8.680e-01  -1.447e-01   0.000e+00
  -7.957e-01  -2.170e-01   0.000e+00
  -7.233e-01  -2.170e-01   0.000e+00
  -7.957e-01  -1.447e-01   0.000e+00
  -7.233e-01  -2.170e-01   0.000e+00
  -6.510e-01  -2.170e-01   0.000e+00
  -7.233e-01  -1.447e-01   0.000e+00
  -6.510e-01  -2.170e-01   0.000e+00
  -5.787e-01  -2.170e-01   0.000e+00
  -6.510e-01  -1.447e-01   0.000e+00
  -5.787e-01  -2.170e-01   0.000e+00
  -5.063e-01  -2.170e-01   0.000e+00
  -5.787e-01  -1.447e-01   0.000e+00
  -5.063e-01  -2.170e-01   0.000e+00
  -4.340e-01  -2.170e-01   0.000e+00
  -5.063e-01  -1.447e-01   0.000e+00
  -4.340e-01  -2.170e-01   0.000e+00
  -3.617e-01  -2.170e-01   0.000e+00
  -4.340e-01  -1.447e-01   0.000e+00
  -3.419e-01  -2.170e-01   0.000e+00
  -3.357e-01  -2.068e-01   0.000e+00
  -3.255e-01  -2.170e-01   0.000e+00
  -3.617e-01  -2.170e-01   0.000e+00
  -3.419e-01  -2.170e-01   0.000e+00
  -3.357e-01  -2.068e-01   0.000e+00
  -3.617e-01  -1.808e-01   0.000e+00
  -2.893e-01  -2.170e-01   0.000e+00
  -3.217e-01  -1.846e-01   0.000e+00
  -3.255e-01  -1.907e-01   0.000e+00
  -3.255e-01  -2.170e-01   0.000e+00
  -3.217e-01  -1.846e-01   0.000e+00
  -3.255e-01  -1.907e-01   0.000e+00
  -3.255e-01  -1.808e-01   0.000e+00
  -3.357e-01  -2.068e-01   0.000e+00
  -3.255e-01  -1.907e-01   0.000e+00
  -3.255e-01  -2.170e-01   0.000e+00
  -3.255e-01  -1.808e-01   0.000e+00
  -3.617e-01  -1.808e-01   0.000e+00
  -3.357e-01  -2.068e-01   0.000e+00
  -3.255e-01  -1.907e-01   0.000e+00
  -3.617e-01  -1.447e-01   0.000e+00
  -3.617e-01  -1.808e-01   0.000e+00
  -3.255e-01  -1.808e-01   0.000e+00
  -2.893e-01  -2.170e-01   0.000e+00
  -2.170e-01  -2.170e-01   0.000e+00
  -2.893e-01  -1.447e-01   0.000e+00
  -2.170e-01  -2.170e-01   0.000e+00
  -1.447e-01  -2.170e-01   0.000e+00
  -2.170e-01  -1.447e-01   0.000e+00
  -1.447e-01  -2.170e-01   0.000e+00
  -7.233e-02  -2.170e-01   0.000e+00
  -1.447e-01  -1.447e-01   0.000e+00
  -7.233e-02  -2.170e-01   0.000e+00
   0.000e+00  -2.170e-01   0.000e+00
  -7.233e-02  -1.447e-01   0.000e+00
   0.000e+00  -2.170e-01   0.000e+00
   7.233e-02  -2.170e-01   0.000e+00
   0.000e+00  -1.447e-01   0.000e+00
   7.233e-02  -2.170e-01   0.000e+00
   1.447e-01  -2.170e-01   0.000e+00
   7.233e-02  -1.447e-01   0.000e+00
   1.447e-01  -2.170e-01   0.000e+00
   2.170e-01  -2.170e-01   0.000e+00
   1.447e-01  -1.447e-01   0.000e+00
   2.170e-01  -2.170e-01   0.000e+00
   2.893e-01  -2.170e-01   0.000e+00
   2.170e-01  -1.447e-01   0.000e+00
   2.893e-01  -2.170e-01   0.000e+00
   3.617e-01  -2.170e-01   0.000e+00
   2.893e-01  -1.447e-01   0.000e+00
   3.617e-01  -2.170e-01   0.000e+00
   3.978e-01  -2.170e-01   0.000e+00
   3.617e-01  -1.808e-01   0.000e+00
   4.267e-01  -2.097e-01   0.000e+00
   4.313e-01  -2.170e-01   0.000e+00
   3.978e-01  -1.808e-01   0.000e+00
   3.978e-01  -2.170e-01   0.000e+00
   4.340e-01  -2.170e-01   0.000e+00
   4.267e-01  -2.097e-01   0.000e+00
   4.313e-01  -2.170e-01   0.000e+00
   3.978e-01  -1.808e-01   0.000e+00
   3.617e-01  -1.808e-01   0.000e+00
   3.978e-01  -2.170e-01   0.000e+00
   3.617e-01  -1.447e-01   0.000e+00
   3.617e-01  -1.808e-01   0.000e+00
   3.978e-01  -1.808e-01   0.000e+00
   4.340e-01  -2.170e-01   0.000e+00
   5.063e-01  -2.170e-01   0.000e+00
   4.340e-01  -1.447e-01   0.000e+00
   5.063e-01  -2.170e-01   0.000e+00
   5.787e-01  -2.170e-01   0.000e+00
   5.063e-01  -1.447e-01   0.000e+00
   5.787e-01  -2.170e-01   0.000e+00
   6.510e-01  -2.170e-01   0.000e+00
   5.787e-01  -1.447e-01   0.000e+00
   6.510e-01  -2.170e-01   0.000e+00
   7.233e-01  -2.170e-01   0.000e+00
   6.510e-01  -1.447e-01   0.000e+00
   7.233e-01  -2.170e-01   0.000e+00
   7.957e-01  -2.170e-01   0.000e+00
   7.233e-01  -1.447e-01   0.000e+00
   7.957e-01  -2.170e-01   0.000e+00
   8.680e-01  -2.170e-01   0.000e+00
   7.957e-01  -1.447e-01   0.000e+00
   8.680e-01  -2.170e-01   0.000e+00
   9.403e-01  -2.170e-01   0.000e+00
   8.680e-01  -1.447e-01   0.000e+00
   9.403e-01  -2.170e-01   0.000e+00
   1.013e+00  -2.170e-01   0.000e+00
   9.403e-01  -1.447e-01   0.000e+00
   1.013e+00  -2.170e-01   0.000e+00
   1.085e+00  -2.170e-01   0.000e+00
   1.013e+00  -1.447e-01   0.000e+00
  -1.085e+00  -1.447e-01   0.000e+00
  -1.013e+00  -1.447e-01   0.000e+00
  -1.085e+00  -7.233e-02   0.000e+00
  -1.013e+00  -1.447e-01   0.000e+00
  -9.403e-01  -1.447e-01   0.000e+00
  -1.013e+00  -7.233e-02   0.000e+00
  -9.403e-01  -1.447e-01   0.000e+00
  -8.680e-01  -1.447e-01   0.000e+00
  -9.403e-01  -7.233e-02   0.000e+00
  -8.680e-01  -1.447e-01   0.000e+00
  -7.957e-01  -1.447e-01   0.000e+00
  -8.680e-01  -7.233e-02   0.000e+00
  -7.957e-01  -1.447e-01   0.000e+00
  -7.233e-01  -1.447e-01   0.000e+00
  -7.957e-01  -7.233e-02   0.000e+00
  -7.233e-01  -1.447e-01   0.000e+00
  -6.510e-01  -1.447e-01   0.000e+00
  -7.233e-01  -7.233e-02   0.000e+00
  -6.510e-01  -1.447e-01   0.000e+00
  -5.787e-01  -1.447e-01   0.000e+00
  -6.510e-01  -7.233e-02   0.000e+00
  -5.787e-01  -1.447e-01   0.000e+00
  -5.063e-01  -1.447e-01   0.000e+00
  -5.787e-01  -7.233e-02   0.000e+00
  -5.063e-01  -1.447e-01   0.000e+00
  -4.340e-01  -1.447e-01   0.000e+00
  -5.063e-01  -7.233e-02   0.000e+00
  -4.340e-01  -1.447e-01   0.000e+00
  -3.617e-01  -1.447e-01   0.000e+00
  -4.340e-01  -7.233e-02   0.000e+00
  -3.617e-01  -1.447e-01   0.000e+00
  -3.255e-01  -1.447e-01   0.000e+00
  -3.617e-01  -1.085e-01   0.000e+00
  -2.893e-01  -1.447e-01   0.000e+00
  -2.921e-01  -1.419e-01   0.000e+00
  -2.941e-01  -1.447e-01   0.000e+00
  -2.921e-01  -1.419e-01   0.000e+00
  -2.941e-01  -1.447e-01   0.000e+00
  -3.255e-01  -1.085e-01   0.000e+00
  -3.255e-01  -1.447e-01   0.000e+00
  -3.255e-01  -1.085e-01   0.000e+00
  -3.617e-01  -1.085e-01   0.000e+00
  -3.255e-01  -1.447e-01   0.000e+00
  -3.617e-01  -7.233e-02   0.000e+00
  -3.617e-01  -1.085e-01   0.000e+00
  -3.255e-01  -1.085e-01   0.000e+00
  -2.893e-01  -1.447e-01   0.000e+00
  -2.532e-01  -1.447e-01   0.000e+00
  -2.893e-01  -1.381e-01   0.000e+00
  -2.769e-01  -1.210e-01   0.000e+00
  -2.893e-01  -1.381e-01   0.000e+00
  -2.769e-01  -1.210e-01   0.000e+00
  -2.893e-01  -1.085e-01   0.000e+00
  -2.170e-01  -1.447e-01   0.000e+00
  -2.532e-01  -1.085e-01   0.000e+00
  -2.532e-01  -1.447e-01   0.000e+00
  -2.532e-01  -1.085e-01   0.000e+00
  -2.769e-01  -1.210e-01   0.000e+00
  -2.679e-01  -1.085e-01   0.000e+00
  -2.532e-01  -1.447e-01   0.000e+00
  -2.769e-01  -1.210e-01   0.000e+00
  -2.679e-01  -1.085e-01   0.000e+00
  -2.893e-01  -1.085e-01   0.000e+00
  -2.679e-01  -1.085e-01   0.000e+00
  -2.618e-01  -9.991e-02   0.000e+00
  -2.532e-01  -1.085e-01   0.000e+00
  -2.893e-01  -7.233e-02   0.000e+00
  -2.893e-01  -1.085e-01   0.000e+00
  -2.679e-01  -1.085e-01   0.000e+00
  -2.618e-01  -9.991e-02   0.000e+00
  -2.170e-01  -1.447e-01   0.000e+00
  -1.447e-01  -1.447e-01   0.000e+00
  -2.170e-01  -7.233e-02   0.000e+00
  -1.447e-01  -1.447e-01   0.000e+00
  -7.233e-02  -1.447e-01   0.000e+00
  -1.447e-01  -7.233e-02   0.000e+00
  -7.233e-02  -1.447e-01   0.000e+00
   0.000e+00  -1.447e-01   0.000e+00
  -7.233e-02  -7.233e-02   0.000e+00
   0.000e+00  -1.447e-01   0.000e+00
   7.233e-02  -1.447e-01   0.000e+00
   0.000e+00  -7.233e-02   0.000e+00
   7.233e-02  -1.447e-01   0.000e+00
   1.447e-01  -1.447e-01   0.000e+00
   7.233e-02  -7.233e-02   0.000e+00
   1.447e-01  -1.447e-01   0.000e+00
   2.170e-01  -1.447e-01   0.000e+00
   1.447e-01  -7.233e-02   0.000e+00
   2.170e-01  -1.447e-01   0.000e+00
   2.893e-01  -1.447e-01   0.000e+00
   2.170e-01  -7.233e-02   0.000e+00
   2.893e-01  -1.447e-01   0.000e+00
   3.617e-01  -1.447e-01   0.000e+00
   2.893e-01  -7.233e-02   0.000e+00
   3.617e-01  -1.447e-01   0.000e+00
   3.835e-01  -1.447e-01   0.000e+00
   3.617e-01  -1.145e-01   0.000e+00
   3.835e-01  -1.447e-01   0.000e+00
   3.617e-01  -1.145e-01   0.000e+00
   3.978e-01  -1.447e-01   0.000e+00
   3.617e-01  -1.085e-01   0.000e+00
   4.340e-01  -1.447e-01   0.000e+00
   3.978e-01  -1.085e-01   0.000e+00
   3.978e-01  -1.447e-01   0.000e+00
   3.978e-01  -1.085e-01   0.000e+00
   3.617e-01  -1.085e-01   0.000e+00
   3.978e-01  -1.447e-01   0.000e+00
   3.617e-01  -7.233e-02   0.000e+00
   3.617e-01  -1.085e-01   0.000e+00
   3.978e-01  -1.085e-01   0.000e+00
   4.340e-01  -1.447e-01   0.000e+00
   5.063e-01  -1.447e-01   0.000e+00
   4.340e-01  -7.233e-02   0.000e+00
   5.063e-01  -1.447e-01   0.000e+00
   5.787e-01  -1.447e-01   0.000e+00
   5.063e-01  -7.233e-02   0.000e+00
   5.787e-01  -1.447e-01   0.000e+00
   6.510e-01  -1.447e-01   0.000e+00
   5.787e-01  -7.233e-02   0.000e+00
   6.510e-01  -1.447e-01   0.000e+00
   7.233e-01  -1.447e-01   0.000e+00
   6.510e-01  -7.233e-02   0.000e+00
   7.233e-01  -1.447e-01   0.000e+00
   7.957e-01  -1.447e-01   0.000e+00
   7.233e-01  -7.233e-02   0.000e+00
   7.957e-01  -1.447e-01   0.000e+00
   8.680e-01  -1.447e-01   0.000e+00
   7.957e-01  -7.233e-02   0.000e+00
   8.680e-01  -1.447e-01   0.000e+00
   9.403e-01  -1.447e-01   0.000e+00
   8.680e-01  -7.233e-02   0.000e+00
   9.403e-01  -1.447e-01   0.000e+00
   1.013e+00  -1.447e-01   0.000e+00
   9.403e-01  -7.233e-02   0.000e+00
   1.013e+00  -1.447e-01   0.000e+00
   1.085e+00  -1.447e-01   0.000e+00
   1.013e+00  -7.233e-02   0.000e+00
  -1.085e+00  -7.233e-02   0.000e+00
  -1.013e+00  -7.233e-02   0.000e+00
  -1.085e+00   0.000e+00   0.000e+00
  -1.013e+00  -7.233e-02   0.000e+00
  -9.403e-01  -7.233e-02   0.000e+00
  -1.013e+00   0.000e+00   0.000e+00
  -9.403e-01  -7.233e-02   0.000e+00
  -8.680e-01  -7.233e-02   0.000e+00
  -9.403e-01   0.000e+00   0.000e+00
  -8.680e-01  -7.233e-02   0.000e+00
  -7.957e-01  -7.233e-02   0.000e+00
  -8.680e-01   0.000e+00   0.000e+00
  -7.957e-01  -7.233e-02   0.000e+00
  -7.233e-01  -7.233e-02   0.000e+00
  -7.957e-01   0.000e+00   0.000e+00
  -7.233e-01  -7.233e-02   0.000e+00
  -6.510e-01  -7.233e-02   0.000e+00
  -7.233e-01   0.000e+00   0.000e+00
  -6.510e-01  -7.233e-02   0.000e+00
  -5.787e-01  -7.233e-02   0.000e+00
  -6.510e-01   0.000e+00   0.000e+00
  -5.787e-01  -7.233e-02   0.000e+00
  -5.063e-01  -7.233e-02   0.000e+00
  -5.787e-01  -0.000e+00   0.000e+00
  -5.063e-01  -7.233e-02   0.000e+00
  -4.340e-01  -7.233e-02   0.000e+00
  -5.063e-01   0.000e+00   0.000e+00
  -4.340e-01  -7.233e-02   0.000e+00
  -3.617e-01  -7.233e-02   0.000e+00
  -4.340e-01  -0.000e+00   0.000e+00
  -3.617e-01  -7.233e-02   0.000e+00
  -2.893e-01  -7.233e-02   0.000e+00
  -3.617e-01   0.000e+00   0.000e+00
  -2.893e-01  -7.233e-02   0.000e+00
  -2.532e-01  -7.233e-02   0.000e+00
  -2.893e-01  -3.617e-02   0.000e+00
  -2.170e-01  -7.233e-02   0.000e+00
  -2.505e-01  -3.888e-02   0.000e+00
  -2.449e-01  -7.233e-02   0.000e+00
  -2.505e-01  -3.888e-02   0.000e+00
  -2.449e-01  -7.233e-02   0.000e+00
  -2.532e-01  -3.617e-02   0.000e+00
  -2.532e-01  -7.233e-02   0.000e+00
  -2.532e-01  -3.617e-02   0.000e+00
  -2.893e-01  -3.617e-02   0.000e+00
  -2.532e-01  -7.233e-02   0.000e+00
  -2.893e-01  -0.000e+00   0.000e+00
  -2.893e-01  -1.804e-02   0.000e+00
  -2.571e-01  -3.223e-02   0.000e+00
  -2.893e-01  -1.804e-02   0.000e+00
  -2.571e-01  -3.223e-02   0.000e+00
  -2.893e-01  -3.617e-02   0.000e+00
  -2.532e-01  -3.617e-02   0.000e+00
  -2.170e-01  -7.233e-02   0.000e+00
  -1.447e-01  -7.233e-02   0.000e+00
  -2.170e-01  -0.000e+00   0.000e+00
  -1.447e-01  -7.233e-02   0.000e+00
  -7.233e-02  -7.233e-02   0.000e+00
  -1.447e-01   0.000e+00   0.000e+00
  -7.233e-02  -7.233e-02   0.000e+00
   0.000e+00  -7.233e-02   0.000e+00
  -7.233e-02   0.000e+00   0.000e+00
   0.000e+00  -7.233e-02   0.000e+00
   7.233e-02  -7.233e-02   0.000e+00
   0.000e+00   0.000e+00   0.000e+00
   7.233e-02  -7.233e-02   0.000e+00
   1.447e-01  -7.233e-02   0.000e+00
   7.233e-02   0.000e+00   0.000e+00
   1.447e-01  -7.233e-02   0.000e+00
   2.170e-01  -7.233e-02   0.000e+00
   1.447e-01   0.000e+00   0.000e+00
   2.170e-01  -7.233e-02   0.000e+00
   2.893e-01  -7.233e-02   0.000e+00
   2.170e-01  -0.000e+00   0.000e+00
   2.893e-01  -7.233e-02   0.000e+00
   3.255e-01  -7.233e-02   0.000e+00
   2.893e-01  -3.617e-02   0.000e+00
   3.359e-01  -4.653e-02   0.000e+00
   3.344e-01  -7.233e-02   0.000e+00
   3.255e-01  -3.617e-02   0.000e+00
   3.255e-01  -7.233e-02   0.000e+00
   3.617e-01  -7.233e-02   0.000e+00
   3.359e-01  -4.653e-02   0.000e+00
   3.344e-01  -7.233e-02   0.000e+00
   3.255e-01  -3.617e-02   0.000e+00
   2.893e-01  -3.617e-02   0.000e+00
   3.255e-01  -7.233e-02   0.000e+00
   2.893e-01   0.000e+00   0.000e+00
   2.893e-01  -3.617e-02   0.000e+00
   3.255e-01  -3.617e-02   0.000e+00
   3.617e-01  -7.233e-02   0.000e+00
   3.978e-01  -7.233e-02   0.000e+00
   3.617e-01  -3.617e-02   0.000e+00
   4.340e-01  -7.233e-02   0.000e+00
   3.978e-01  -3.617e-02   0.000e+00
   3.978e-01  -7.233e-02   0.000e+00
   3.978e-01  -3.617e-02   0.000e+00
   3.617e-01  -3.617e-02   0.000e+00
   3.978e-01  -7.233e-02   0.000e+00
   3.617e-01   0.000e+00   0.000e+00
   3.617e-01  -2.438e-02   0.000e+00
   3.795e-01  -1.786e-02   0.000e+00
   3.617e-01  -2.438e-02   0.000e+00
   3.795e-01  -1.786e-02   0.000e+00
   3.617e-01  -3.617e-02   0.000e+00
   3.978e-01  -3.617e-02   0.000e+00
   4.340e-01  -7.233e-02   0.000e+00
   5.063e-01  -7.233e-02   0.000e+00
   4.340e-01   0.000e+00   0.000e+00
   5.063e-01  -7.233e-02   0.000e+00
   5.787e-01  -7.233e-02   0.000e+00
   5.063e-01   0.000e+00   0.000e+00
   5.787e-01  -7.233e-02   0.000e+00
   6.510e-01  -7.233e-02   0.000e+00
   5.787e-01  -0.000e+00   0.000e+00
   6.510e-01  -7.233e-02   0.000e+00
   7.233e-01  -7.233e-02   0.000e+00
   6.510e-01  -0.000e+00   0.000e+00
   7.233e-01  -7.233e-02   0.000e+00
   7.957e-01  -7.233e-02   0.000e+00
   7.233e-01   0.000e+00   0.000e+00
   7.957e-01  -7.233e-02   0.000e+00
   8.680e-01  -7.233e-02   0.000e+00
   7.957e-01   0.000e+00   0.000e+00
   8.680e-01  -7.233e-02   0.000e+00
   9.403e-01  -7.233e-02   0.000e+00
   8.680e-01   0.000e+00   0.000e+00
   9.403e-01  -7.233e-02   0.000e+00
   1.013e+00  -7.233e-02   0.000e+00
   9.403e-01  -0.000e+00   0.000e+00
   1.013e+00  -7.233e-02   0.000e+00
   1.085e+00  -7.233e-02   0.000e+00
   1.013e+00  -0.000e+00   0.000e+00
  -1.085e+00   0.000e+00   0.000e+00
  -1.013e+00   0.000e+00   0.000e+00
  -1.085e+00   7.233e-02   0.000e+00
  -1.013e+00   0.000e+00   0.000e+00
  -9.403e-01   0.000e+00   0.000e+00
  -1.013e+00   7.233e-02   0.000e+00
  -9.403e-01   0.000e+00   0.000e+00
  -8.680e-01   0.000e+00   0.000e+00
  -9.403e-01   7.233e-02   0.000e+00
  -8.680e-01   0.000e+00   0.000e+00
  -7.957e-01   0.000e+00   0.000e+00
  -8.680e-01   7.233e-02   0.000e+00
  -7.957e-01   0.000e+00   0.000e+00
  -7.233e-01   0.000e+00   0.000e+00
  -7.957e-01   7.233e-02   0.000e+00
  -7.233e-01   0.000e+00   0.000e+00
  -6.510e-01   0.000e+00   0.000e+00
  -7.233e-01   7.233e-02   0.000e+00
  -6.510e-01   0.000e+00   0.000e+00
  -5.787e-01  -0.000e+00   0.000e+00
  -6.510e-01   7.233e-02   0.000e+00
  -5.787e-01  -0.000e+00   0.000e+00
  -5.063e-01   0.000e+00   0.000e+00
  -5.787e-01   7.233e-02   0.000e+00
  -5.063e-01   0.000e+00   0.000e+00
  -4.340e-01  -0.000e+00   0.000e+00
  -5.063e-01   7.233e-02   0.000e+00
  -4.340e-01   3.457e-02   0.000e+00
  -4.313e-01   3.345e-02   0.000e+00
  -4.340e-01   3.617e-02   0.000e+00
  -4.340e-01  -0.000e+00   0.000e+00
  -3.978e-01   0.000e+00   0.000e+00
  -4.340e-01   3.457e-02   0.000e+00
  -4.313e-01   3.345e-02   0.000e+00
  -3.711e-01   9.424e-03   0.000e+00
  -3.978e-01   1.927e-02   0.000e+00
  -3.978e-01   3.617e-02   0.000e+00
  -3.617e-01   0.000e+00   0.000e+00
  -3.711e-01   9.424e-03   0.000e+00
  -3.978e-01   1.927e-02   0.000e+00
  -3.978e-01   0.000e+00   0.000e+00
  -3.978e-01   3.617e-02   0.000e+00
  -4.340e-01   3.617e-02   0.000e+00
  -4.313e-01   3.345e-02   0.000e+00
  -3.978e-01   1.927e-02   0.000e+00
  -4.313e-01   3.345e-02   0.000e+00
  -3.978e-01   1.927e-02   0.000e+00
  -3.978e-01   0.000e+00   0.000e+00
  -4.340e-01   7.233e-02   0.000e+00
  -4.340e-01   3.617e-02   0.000e+00
  -3.978e-01   3.617e-02   0.000e+00
  -3.442e-01   0.000e+00   0.000e+00
  -3.617e-01   5.873e-03   0.000e+00
  -3.255e-01   0.000e+00   0.000e+00
  -3.617e-01   3.617e-02   0.000e+00
  -3.617e-01   0.000e+00   0.000e+00
  -3.442e-01   0.000e+00   0.000e+00
  -3.617e-01   5.873e-03   0.000e+00
  -2.893e-01  -0.000e+00   0.000e+00
  -3.255e-01   3.617e-02   0.000e+00
  -3.255e-01   0.000e+00   0.000e+00
  -3.255e-01   3.617e-02   0.000e+00
  -3.617e-01   3.617e-02   0.000e+00
  -3.255e-01   0.000e+00   0.000e+00
  -3.617e-01   7.233e-02   0.000e+00
  -3.617e-01   3.617e-02   0.000e+00
  -3.255e-01   3.617e-02   0.000e+00
  -2.893e-01  -0.000e+00   0.000e+00
  -2.170e-01  -0.000e+00   0.000e+00
  -2.893e-01   7.233e-02   0.000e+00
  -2.170e-01  -0.000e+00   0.000e+00
  -1.447e-01   0.000e+00   0.000e+00
  -2.170e-01   7.233e-02   0.000e+00
  -1.447e-01   0.000e+00   0.000e+00
  -7.233e-02   0.000e+00   0.000e+00
  -1.447e-01   7.233e-02   0.000e+00
  -7.233e-02   0.000e+00   0.000e+00
   0.000e+00   0.000e+00   0.000e+00
  -7.233e-02   7.233e-02   0.000e+00
   0.000e+00   0.000e+00   0.000e+00
   7.233e-02   0.000e+00   0.000e+00
   0.000e+00   7.233e-02   0.000e+00
   7.233e-02   0.000e+00   0.000e+00
   1.447e-01   0.000e+00   0.000e+00
   7.233e-02   7.233e-02   0.000e+00
   1.447e-01   0.000e+00   0.000e+00
   2.170e-01  -0.000e+00   0.000e+00
   1.447e-01   7.233e-02   0.000e+00
   2.170e-01  -0.000e+00   0.000e+00
   2.893e-01   0.000e+00   0.000e+00
   2.170e-01   7.233e-02   0.000e+00
   2.893e-01   0.000e+00   0.000e+00
   3.617e-01   0.000e+00   0.000e+00
   2.893e-01   7.233e-02   0.000e+00
   3.617e-01   0.000e+00   0.000e+00
   3.978e-01   0.000e+00   0.000e+00
   3.617e-01   3.617e-02   0.000e+00
   4.340e-01   2.905e-05   0.000e+00
   4.339e-01   0.000e+00   0.000e+00
   3.978e-01   3.617e-02   0.000e+00
   3.978e-01   0.000e+00   0.000e+00
   4.340e-01   0.000e+00   0.000e+00
   4.340e-01   2.905e-05   0.000e+00
   4.339e-01   0.000e+00   0.000e+00
   3.978e-01   3.617e-02   0.000e+00
   3.617e-01   3.617e-02   0.000e+00
   3.978e-01   0.000e+00   0.000e+00
   3.617e-01   7.233e-02   0.000e+00
   3.617e-01   3.617e-02   0.000e+00
   3.978e-01   3.617e-02   0.000e+00
   4.340e-01   3.866e-05   0.000e+00
   4.608e-01   9.345e-03   0.000e+00
   4.340e-01   3.617e-02   0.000e+00
   4.340e-01   0.000e+00   0.000e+00
   4.702e-01   0.000e+00   0.000e+00
   4.340e-01   3.866e-05   0.000e+00
   4.608e-01   9.345e-03   0.000e+00
   4.871e-01   1.924e-02   0.000e+00
   4.702e-01   1.273e-02   0.000e+00
   4.702e-01   3.617e-02   0.000e+00
   5.063e-01   0.000e+00   0.000e+00
   4.871e-01   1.924e-02   0.000e+00
   4.702e-01   1.273e-02   0.000e+00
   4.702e-01   0.000e+00   0.000e+00
   4.702e-01   3.617e-02   0.000e+00
   4.340e-01   3.617e-02   0.000e+00
   4.608e-01   9.345e-03   0.000e+00
   4.702e-01   1.273e-02   0.000e+00
   4.608e-01   9.345e-03   0.000e+00
   4.702e-01   1.273e-02   0.000e+00
   4.702e-01   0.000e+00   0.000e+00
   4.340e-01   7.233e-02   0.000e+00
   4.340e-01   3.617e-02   0.000e+00
   4.702e-01   3.617e-02   0.000e+00
   5.063e-01   2.707e-02   0.000e+00
   5.127e-01   2.981e-02   0.000e+00
   5.063e-01   3.617e-02   0.000e+00
   5.063e-01   0.000e+00   0.000e+00
   5.425e-01   0.000e+00   0.000e+00
   5.063e-01   2.707e-02   0.000e+00
   5.127e-01   2.981e-02   0.000e+00
   5.787e-01  -0.000e+00   0.000e+00
   5.425e-01   3.617e-02   0.000e+00
   5.425e-01   0.000e+00   0.000e+00
   5.127e-01   2.981e-02   0.000e+00
   5.265e-01   3.617e-02   0.000e+00
   5.063e-01   3.617e-02   0.000e+00
   5.425e-01   3.617e-02   0.000e+00
   5.127e-01   2.981e-02   0.000e+00
   5.265e-01   3.617e-02   0.000e+00
   5.425e-01   0.000e+00   0.000e+00
   5.063e-01   7.233e-02   0.000e+00
   5.063e-01   3.617e-02   0.000e+00
   5.265e-01   3.617e-02   0.000e+00
   5.375e-01   4.119e-02   0.000e+00
   5.265e-01   3.617e-02   0.000e+00
   5.375e-01   4.119e-02   0.000e+00
   5.425e-01   3.617e-02   0.000e+00
   5.787e-01  -0.000e+00   0.000e+00
   6.148e-01  -0.000e+00   0.000e+00
   5.787e-01   3.617e-02   0.000e+00
   6.510e-01  -0.000e+00   0.000e+00
   6.148e-01   3.617e-02   0.000e+00
   6.148e-01  -0.000e+00   0.000e+00
   6.148e-01   3.617e-02   0.000e+00
   5.787e-01   3.617e-02   0.000e+00
   6.148e-01  -0.000e+00   0.000e+00
   5.787e-01   7.233e-02   0.000e+00
   5.787e-01   6.318e-02   0.000e+00
   5.844e-01   6.657e-02   0.000e+00
   5.787e-01   6.318e-02   0.000e+00
   5.844e-01   6.657e-02   0.000e+00
   5.787e-01   3.617e-02   0.000e+00
   6.148e-01   3.617e-02   0.000e+00
   6.510e-01  -0.000e+00   0.000e+00
   7.233e-01   0.000e+00   0.000e+00
   6.510e-01   7.233e-02   0.000e+00
   7.233e-01   0.000e+00   0.000e+00
   7.957e-01   0.000e+00   0.000e+00
   7.233e-01   7.233e-02   0.000e+00
   7.957e-01   0.000e+00   0.000e+00
   8.680e-01   0.000e+00   0.000e+00
   7.957e-01   7.233e-02   0.000e+00
   8.680e-01   0.000e+00   0.000e+00
   9.403e-01  -0.000e+00   0.000e+00
   8.680e-01   7.233e-02   0.000e+00
   9.403e-01  -0.000e+00   0.000e+00
   1.013e+00  -0.000e+00   0.000e+00
   9.403e-01   7.233e-02   0.000e+00
   1.013e+00  -0.000e+00   0.000e+00
   1.085e+00   0.000e+00   0.000e+00
   1.013e+00   7.233e-02   0.000e+00
  -1.085e+00   7.233e-02   0.000e+00
  -1.013e+00   7.233e-02   0.000e+00
  -1.085e+00   1.447e-01   0.000e+00
  -1.013e+00   7.233e-02   0.000e+00
  -9.403e-01   7.233e-02   0.000e+00
  -1.013e+00   1.447e-01   0.000e+00
  -9.403e-01   7.233e-02   0.000e+00
  -8.680e-01   7.233e-02   0.000e+00
  -9.403e-01   1.447e-01   0.000e+00
  -8.680e-01   7.233e-02   0.000e+00
  -7.957e-01   7.233e-02   0.000e+00
  -8.680e-01   1.447e-01   0.000e+00
  -7.957e-01   7.233e-02   0.000e+00
  -7.233e-01   7.233e-02   0.000e+00
  -7.957e-01   1.447e-01   0.000e+00
  -7.233e-01   7.233e-02   0.000e+00
  -6.510e-01   7.233e-02   0.000e+00
  -7.233e-01   1.447e-01   0.000e+00
  -6.510e-01   7.233e-02   0.000e+00
  -5.787e-01   7.233e-02   0.000e+00
  -6.510e-01   1.447e-01   0.000e+00
  -5.787e-01   7.233e-02   0.000e+00
  -5.425e-01   7.233e-02   0.000e+00
  -5.787e-01   1.085e-01   0.000e+00
  -5.112e-01   7.725e-02   0.000e+00
  -5.425e-01   9.970e-02   0.000e+00
  -5.425e-01   1.085e-01   0.000e+00
  -5.063e-01   7.233e-02   0.000e+00
  -5.112e-01   7.725e-02   0.000e+00
  -5.425e-01   9.970e-02   0.000e+00
  -5.425e-01   7.233e-02   0.000e+00
  -5.425e-01   1.085e-01   0.000e+00
  -5.425e-01   9.970e-02   0.000e+00
  -5.529e-01   1.085e-01   0.000e+00
  -5.425e-01   9.970e-02   0.000e+00
  -5.529e-01   1.085e-01   0.000e+00
  -5.787e-01   1.085e-01   0.000e+00
  -5.425e-01   7.233e-02   0.000e+00
  -5.787e-01   1.447e-01   0.000e+00
  -5.529e-01   1.085e-01   0.000e+00
  -5.787e-01   1.336e-01   0.000e+00
  -5.425e-01   1.085e-01   0.000e+00
  -5.529e-01   1.085e-01   0.000e+00
  -5.787e-01   1.336e-01   0.000e+00
  -5.787e-01   1.085e-01   0.000e+00
  -5.042e-01   7.233e-02   0.000e+00
  -5.063e-01   7.365e-02   0.000e+00
  -4.702e-01   7.233e-02   0.000e+00
  -5.063e-01   1.085e-01   0.000e+00
  -5.063e-01   7.233e-02   0.000e+00
  -5.042e-01   7.233e-02   0.000e+00
  -5.063e-01   7.365e-02   0.000e+00
  -4.340e-01   7.233e-02   0.000e+00
  -4.702e-01   1.085e-01   0.000e+00
  -4.702e-01   7.233e-02   0.000e+00
  -4.702e-01   1.085e-01   0.000e+00
  -5.063e-01   1.085e-01   0.000e+00
  -4.702e-01   7.233e-02   0.000e+00
  -5.063e-01   1.447e-01   0.000e+00
  -5.063e-01   1.085e-01   0.000e+00
  -4.702e-01   1.085e-01   0.000e+00
  -4.340e-01   7.233e-02   0.000e+00
  -3.617e-01   7.233e-02   0.000e+00
  -4.340e-01   1.447e-01   0.000e+00
  -3.617e-01   7.233e-02   0.000e+00
  -2.893e-01   7.233e-02   0.000e+00
  -3.617e-01   1.447e-01   0.000e+00
  -2.893e-01   7.233e-02   0.000e+00
  -2.170e-01   7.233e-02   0.000e+00
  -2.893e-01   1.447e-01   0.000e+00
  -2.170e-01   7.233e-02   0.000e+00
  -1.447e-01   7.233e-02   0.000e+00
  -2.170e-01   1.447e-01   0.000e+00
  -1.447e-01   7.233e-02   0.000e+00
  -7.233e-02   7.233e-02   0.000e+00
  -1.447e-01   1.447e-01   0.000e+00
  -7.233e-02   7.233e-02   0.000e+00
   0.000e+00   7.233e-02   0.000e+00
  -7.233e-02   1.447e-01   0.000e+00
   0.000e+00   7.233e-02   0.000e+00
   7.233e-02   7.233e-02   0.000e+00
   0.000e+00   1.447e-01   0.000e+00
   7.233e-02   7.233e-02   0.000e+00
   1.447e-01   7.233e-02   0.000e+00
   7.233e-02   1.447e-01   0.000e+00
   1.447e-01   7.233e-02   0.000e+00
   2.170e-01   7.233e-02   0.000e+00
   1.447e-01   1.447e-01   0.000e+00
   2.170e-01   7.233e-02   0.000e+00
   2.893e-01   7.233e-02   0.000e+00
   2.170e-01   1.447e-01   0.000e+00
   2.893e-01   7.233e-02   0.000e+00
   3.617e-01   7.233e-02   0.000e+00
   2.893e-01   1.447e-01   0.000e+00
   3.617e-01   7.233e-02   0.000e+00
   4.340e-01   7.233e-02   0.000e+00
   3.617e-01   1.447e-01   0.000e+00
   4.340e-01   7.233e-02   0.000e+00
   5.063e-01   7.233e-02   0.000e+00
   4.340e-01   1.447e-01   0.000e+00
   5.063e-01   7.233e-02   0.000e+00
   5.787e-01   7.233e-02   0.000e+00
   5.063e-01   1.447e-01   0.000e+00
   5.787e-01   7.233e-02   0.000e+00
   5.933e-01   7.233e-02   0.000e+00
   6.064e-01   8.072e-02   0.000e+00
   5.787e-01   1.085e-01   0.000e+00
   5.933e-01   7.233e-02   0.000e+00
   6.064e-01   8.072e-02   0.000e+00
   6.148e-01   7.233e-02   0.000e+00
   6.274e-01   9.596e-02   0.000e+00
   6.148e-01   8.673e-02   0.000e+00
   6.148e-01   1.085e-01   0.000e+00
   6.510e-01   7.233e-02   0.000e+00
   6.274e-01   9.596e-02   0.000e+00
   6.148e-01   8.673e-02   0.000e+00
   6.148e-01   7.233e-02   0.000e+00
   6.148e-01   1.085e-01   0.000e+00
   5.787e-01   1.085e-01   0.000e+00
   6.064e-01   8.072e-02   0.000e+00
   6.148e-01   8.673e-02   0.000e+00
   6.064e-01   8.072e-02   0.000e+00
   6.148e-01   8.673e-02   0.000e+00
   6.148e-01   7.233e-02   0.000e+00
   5.787e-01   1.447e-01   0.000e+00
   5.787e-01   1.085e-01   0.000e+00
   6.148e-01   1.085e-01   0.000e+00
   6.510e-01   7.233e-02   0.000e+00
   6.872e-01   7.233e-02   0.000e+00
   6.510e-01   1.085e-01   0.000e+00
   7.233e-01   7.233e-02   0.000e+00
   6.872e-01   1.085e-01   0.000e+00
   6.872e-01   7.233e-02   0.000e+00
   6.872e-01   1.085e-01   0.000e+00
   6.510e-01   1.085e-01   0.000e+00
   6.872e-01   7.233e-02   0.000e+00
   6.510e-01   1.447e-01   0.000e+00
   6.510e-01   1.162e-01   0.000e+00
   6.654e-01   1.303e-01   0.000e+00
   6.510e-01   1.162e-01   0.000e+00
   6.654e-01   1.303e-01   0.000e+00
   6.510e-01   1.085e-01   0.000e+00
   6.872e-01   1.085e-01   0.000e+00
   7.233e-01   7.233e-02   0.000e+00
   7.957e-01   7.233e-02   0.000e+00
   7.233e-01   1.447e-01   0.000e+00
   7.957e-01   7.233e-02   0.000e+00
   8.680e-01   7.233e-02   0.000e+00
   7.957e-01   1.447e-01   0.000e+00
   8.680e-01   7.233e-02   0.000e+00
   9.403e-01   7.233e-02   0.000e+00
   8.680e-01   1.447e-01   0.000e+00
   9.403e-01   7.233e-02   0.000e+00
   1.013e+00   7.233e-02   0.000e+00
   9.403e-01   1.447e-01   0.000e+00
   1.013e+00   7.233e-02   0.000e+00
   1.085e+00   7.233e-02   0.000e+00
   1.013e+00   1.447e-01   0.000e+00
  -1.085e+00   1.447e-01   0.000e+00
  -1.013e+00   1.447e-01   0.000e+00
  -1.085e+00   2.170e-01   0.000e+00
  -1.013e+00   1.447e-01   0.000e+00
  -9.403e-01   1.447e-01   0.000e+00
  -1.013e+00   2.170e-01   0.000e+00
  -9.403e-01   1.447e-01   0.000e+00
  -8.680e-01   1.447e-01   0.000e+00
  -9.403e-01   2.170e-01   0.000e+00
  -8.680e-01   1.447e-01   0.000e+00
  -7.957e-01   1.447e-01   0.000e+00
  -8.680e-01   2.170e-01   0.000e+00
  -7.957e-01   1.447e-01   0.000e+00
  -7.233e-01   1.447e-01   0.000e+00
  -7.957e-01   2.170e-01   0.000e+00
  -7.233e-01   1.447e-01   0.000e+00
  -6.510e-01   1.447e-01   0.000e+00
  -7.233e-01   2.170e-01   0.000e+00
  -6.510e-01   1.447e-01   0.000e+00
  -6.148e-01   1.447e-01   0.000e+00
  -6.510e-01   1.808e-01   0.000e+00
  -5.787e-01   1.447e-01   0.000e+00
  -6.056e-01   1.716e-01   0.000e+00
  -5.882e-01   1.447e-01   0.000e+00
  -6.056e-01   1.716e-01   0.000e+00
  -5.882e-01   1.447e-01   0.000e+00
  -6.148e-01   1.808e-01   0.000e+00
  -6.148e-01   1.447e-01   0.000e+00
  -6.148e-01   1.808e-01   0.000e+00
  -6.510e-01   1.808e-01   0.000e+00
  -6.148e-01   1.447e-01   0.000e+00
  -6.510e-01   2.170e-01   0.000e+00
  -6.510e-01   1.808e-01   0.000e+00
  -6.148e-01   1.808e-01   0.000e+00
  -5.787e-01   1.447e-01   0.000e+00
  -5.063e-01   1.447e-01   0.000e+00
  -5.787e-01   2.170e-01   0.000e+00
  -5.063e-01   1.447e-01   0.000e+00
  -4.340e-01   1.447e-01   0.000e+00
  -5.063e-01   2.170e-01   0.000e+00
  -4.340e-01   1.447e-01   0.000e+00
  -3.617e-01   1.447e-01   0.000e+00
  -4.340e-01   2.170e-01   0.000e+00
  -3.617e-01   1.447e-01   0.000e+00
  -2.893e-01   1.447e-01   0.000e+00
  -3.617e-01   2.170e-01   0.000e+00
  -2.893e-01   1.447e-01   0.000e+00
  -2.170e-01   1.447e-01   0.000e+00
  -2.893e-01   2.170e-01   0.000e+00
  -2.170e-01   1.447e-01   0.000e+00
  -1.447e-01   1.447e-01   0.000e+00
  -2.170e-01   2.170e-01   0.000e+00
  -1.447e-01   1.447e-01   0.000e+00
  -7.233e-02   1.447e-01   0.000e+00
  -1.447e-01   2.170e-01   0.000e+00
  -7.233e-02   1.447e-01   0.000e+00
   0.000e+00   1.447e-01   0.000e+00
  -7.233e-02   2.170e-01   0.000e+00
   0.000e+00   1.447e-01   0.000e+00
   7.233e-02   1.447e-01   0.000e+00
   0.000e+00   2.170e-01   0.000e+00
   7.233e-02   1.447e-01   0.000e+00
   1.447e-01   1.447e-01   0.000e+00
   7.233e-02   2.170e-01   0.000e+00
   1.447e-01   1.447e-01   0.000e+00
   2.170e-01   1.447e-01   0.000e+00
   1.447e-01   2.170e-01   0.000e+00
   2.170e-01   1.447e-01   0.000e+00
   2.893e-01   1.447e-01   0.000e+00
   2.170e-01   2.170e-01   0.000e+00
   2.893e-01   1.447e-01   0.000e+00
   3.617e-01   1.447e-01   0.000e+00
   2.893e-01   2.170e-01   0.000e+00
   3.617e-01   1.447e-01   0.000e+00
   4.340e-01   1.447e-01   0.000e+00
   3.617e-01   2.170e-01   0.000e+00
   4.340e-01   1.447e-01   0.000e+00
   5.063e-01   1.447e-01   0.000e+00
   4.340e-01   2.170e-01   0.000e+00
   5.063e-01   1.447e-01   0.000e+00
   5.787e-01   1.447e-01   0.000e+00
   5.063e-01   2.170e-01   0.000e+00
   5.787e-01   1.447e-01   0.000e+00
   6.510e-01   1.447e-01   0.000e+00
   5.787e-01   2.170e-01   0.000e+00
   6.510e-01   1.447e-01   0.000e+00
   6.777e-01   1.447e-01   0.000e+00
   6.820e-01   1.499e-01   0.000e+00
   6.510e-01   1.808e-01   0.000e+00
   6.777e-01   1.447e-01   0.000e+00
   6.820e-01   1.499e-01   0.000e+00
   6.872e-01   1.447e-01   0.000e+00
   6.964e-01   1.716e-01   0.000e+00
   6.872e-01   1.579e-01   0.000e+00
   6.872e-01   1.808e-01   0.000e+00
   7.233e-01   1.447e-01   0.000e+00
   6.964e-01   1.716e-01   0.000e+00
   6.872e-01   1.579e-01   0.000e+00
   6.872e-01   1.447e-01   0.000e+00
   6.872e-01   1.808e-01   0.000e+00
   6.510e-01   1.808e-01   0.000e+00
   6.820e-01   1.499e-01   0.000e+00
   6.872e-01   1.579e-01   0.000e+00
   6.820e-01   1.499e-01   0.000e+00
   6.872e-01   1.579e-01   0.000e+00
   6.872e-01   1.447e-01   0.000e+00
   6.510e-01   2.170e-01   0.000e+00
   6.510e-01   1.808e-01   0.000e+00
   6.872e-01   1.808e-01   0.000e+00
   7.233e-01   1.447e-01   0.000e+00
   7.957e-01   1.447e-01   0.000e+00
   7.233e-01   2.170e-01   0.000e+00
   7.957e-01   1.447e-01   0.000e+00
   8.680e-01   1.447e-01   0.000e+00
   7.957e-01   2.170e-01   0.000e+00
   8.680e-01   1.447e-01   0.000e+00
   9.403e-01   1.447e-01   0.000e+00
   8.680e-01   2.170e-01   0.000e+00
   9.403e-01   1.447e-01   0.000e+00
   1.013e+00   1.447e-01   0.000e+00
   9.403e-01   2.170e-01   0.000e+00
   1.013e+00   1.447e-01   0.000e+00
   1.085e+00   1.447e-01   0.000e+00
   1.013e+00   2.170e-01   0.000e+00
  -1.085e+00   2.170e-01   0.000e+00
  -1.013e+00   2.170e-01   0.000e+00
  -1.085e+00   2.893e-01   0.000e+00
  -1.013e+00   2.170e-01   0.000e+00
  -9.403e-01   2.170e-01   0.000e+00
  -1.013e+00   2.893e-01   0.000e+00
  -9.403e-01   2.170e-01   0.000e+00
  -8.680e-01   2.170e-01   0.000e+00
  -9.403e-01   2.893e-01   0.000e+00
  -8.680e-01   2.170e-01   0.000e+00
  -7.957e-01   2.170e-01   0.000e+00
  -8.680e-01   2.893e-01   0.000e+00
  -7.957e-01   2.170e-01   0.000e+00
  -7.233e-01   2.170e-01   0.000e+00
  -7.957e-01   2.893e-01   0.000e+00
  -7.233e-01   2.170e-01   0.000e+00
  -6.510e-01   2.170e-01   0.000e+00
  -7.233e-01   2.893e-01   0.000e+00
  -6.239e-01   2.170e-01   0.000e+00
  -6.238e-01   2.259e-01   0.000e+00
  -6.148e-01   2.170e-01   0.000e+00
  -6.510e-01   2.170e-01   0.000e+00
  -6.239e-01   2.170e-01   0.000e+00
  -6.238e-01   2.259e-01   0.000e+00
  -6.510e-01   2.532e-01   0.000e+00
  -5.787e-01   2.170e-01   0.000e+00
  -6.148e-01   2.532e-01   0.000e+00
  -6.148e-01   2.170e-01   0.000e+00
  -6.148e-01   2.532e-01   0.000e+00
  -6.238e-01   2.259e-01   0.000e+00
  -6.231e-01   2.532e-01   0.000e+00
  -6.148e-01   2.170e-01   0.000e+00
  -6.238e-01   2.259e-01   0.000e+00
  -6.231e-01   2.532e-01   0.000e+00
  -6.510e-01   2.532e-01   0.000e+00
  -6.231e-01   2.532e-01   0.000e+00
  -6.211e-01   2.595e-01   0.000e+00
  -6.148e-01   2.532e-01   0.000e+00
  -6.510e-01   2.893e-01   0.000e+00
  -6.510e-01   2.532e-01   0.000e+00
  -6.231e-01   2.532e-01   0.000e+00
  -6.211e-01   2.595e-01   0.000e+00
  -5.787e-01   2.170e-01   0.000e+00
  -5.063e-01   2.170e-01   0.000e+00
  -5.787e-01   2.893e-01   0.000e+00
  -5.063e-01   2.170e-01   0.000e+00
  -4.340e-01   2.170e-01   0.000e+00
  -5.063e-01   2.893e-01   0.000e+00
  -4.340e-01   2.170e-01   0.000e+00
  -3.617e-01   2.170e-01   0.000e+00
  -4.340e-01   2.893e-01   0.000e+00
  -3.617e-01   2.170e-01   0.000e+00
  -2.893e-01   2.170e-01   0.000e+00
  -3.617e-01   2.893e-01   0.000e+00
  -2.893e-01   2.170e-01   0.000e+00
  -2.170e-01   2.170e-01   0.000e+00
  -2.893e-01   2.893e-01   0.000e+00
  -2.170e-01   2.170e-01   0.000e+00
  -1.447e-01   2.170e-01   0.000e+00
  -2.170e-01   2.893e-01   0.000e+00
  -1.447e-01   2.170e-01   0.000e+00
  -1.085e-01   2.170e-01   0.000e+00
  -1.447e-01   2.532e-01   0.000e+00
  -7.233e-02   2.170e-01   0.000e+00
  -1.085e-01   2.532e-01   0.000e+00
  -1.085e-01   2.170e-01   0.000e+00
  -1.085e-01   2.532e-01   0.000e+00
  -1.447e-01   2.532e-01   0.000e+00
  -1.085e-01   2.170e-01   0.000e+00
  -1.447e-01   2.832e-01   0.000e+00
  -1.400e-01   2.847e-01   0.000e+00
  -1.447e-01   2.532e-01   0.000e+00
  -1.085e-01   2.532e-01   0.000e+00
  -1.447e-01   2.893e-01   0.000e+00
  -1.447e-01   2.832e-01   0.000e+00
  -1.400e-01   2.847e-01   0.000e+00
  -7.233e-02   2.170e-01   0.000e+00
   0.000e+00   2.170e-01   0.000e+00
  -7.233e-02   2.893e-01   0.000e+00
   0.000e+00   2.170e-01   0.000e+00
   7.233e-02   2.170e-01   0.000e+00
   0.000e+00   2.893e-01   0.000e+00
   7.233e-02   2.170e-01   0.000e+00
   1.447e-01   2.170e-01   0.000e+00
   7.233e-02   2.893e-01   0.000e+00
   1.447e-01   2.170e-01   0.000e+00
   2.170e-01   2.170e-01   0.000e+00
   1.447e-01   2.893e-01   0.000e+00
   2.170e-01   2.170e-01   0.000e+00
   2.893e-01   2.170e-01   0.000e+00
   2.170e-01   2.893e-01   0.000e+00
   2.893e-01   2.170e-01   0.000e+00
   3.617e-01   2.170e-01   0.000e+00
   2.893e-01   2.893e-01   0.000e+00
   3.617e-01   2.170e-01   0.000e+00
   4.340e-01   2.170e-01   0.000e+00
   3.617e-01   2.893e-01   0.000e+00
   4.340e-01   2.170e-01   0.000e+00
   5.063e-01   2.170e-01   0.000e+00
   4.340e-01   2.893e-01   0.000e+00
   5.063e-01   2.170e-01   0.000e+00
   5.787e-01   2.170e-01   0.000e+00
   5.063e-01   2.893e-01   0.000e+00
   5.787e-01   2.170e-01   0.000e+00
   6.510e-01   2.170e-01   0.000e+00
   5.787e-01   2.893e-01   0.000e+00
   6.510e-01   2.170e-01   0.000e+00
   6.872e-01   2.170e-01   0.000e+00
   6.510e-01   2.532e-01   0.000e+00
   7.130e-01   2.274e-01   0.000e+00
   7.133e-01   2.170e-01   0.000e+00
   6.872e-01   2.532e-01   0.000e+00
   6.872e-01   2.170e-01   0.000e+00
   7.233e-01   2.170e-01   0.000e+00
   7.130e-01   2.274e-01   0.000e+00
   7.133e-01   2.170e-01   0.000e+00
   6.872e-01   2.532e-01   0.000e+00
   6.510e-01   2.532e-01   0.000e+00
   6.872e-01   2.170e-01   0.000e+00
   6.510e-01   2.893e-01   0.000e+00
   6.510e-01   2.532e-01   0.000e+00
   6.872e-01   2.532e-01   0.000e+00
   7.233e-01   2.170e-01   0.000e+00
   7.957e-01   2.170e-01   0.000e+00
   7.233e-01   2.893e-01   0.000e+00
   7.957e-01   2.170e-01   0.000e+00
   8.680e-01   2.170e-01   0.000e+00
   7.957e-01   2.893e-01   0.000e+00
   8.680e-01   2.170e-01   0.000e+00
   9.403e-01   2.170e-01   0.000e+00
   8.680e-01   2.893e-01   0.000e+00
   9.403e-01   2.170e-01   0.000e+00
   1.013e+00   2.170e-01   0.000e+00
   9.403e-01   2.893e-01   0.000e+00
   1.013e+00   2.170e-01   0.000e+00
   1.085e+00   2.170e-01   0.000e+00
   1.013e+00   2.893e-01   0.000e+00
  -1.085e+00   2.893e-01   0.000e+00
  -1.013e+00   2.893e-01   0.000e+00
  -1.085e+00   3.617e-01   0.000e+00
  -1.013e+00   2.893e-01   0.000e+00
  -9.403e-01   2.893e-01   0.000e+00
  -1.013e+00   3.617e-01   0.000e+00
  -9.403e-01   2.893e-01   0.000e+00
  -8.680e-01   2.893e-01   0.000e+00
  -9.403e-01   3.617e-01   0.000e+00
  -8.680e-01   2.893e-01   0.000e+00
  -7.957e-01   2.893e-01   0.000e+00
  -8.680e-01   3.617e-01   0.000e+00
  -7.957e-01   2.893e-01   0.000e+00
  -7.233e-01   2.893e-01   0.000e+00
  -7.957e-01   3.617e-01   0.000e+00
  -7.233e-01   2.893e-01   0.000e+00
  -6.510e-01   2.893e-01   0.000e+00
  -7.233e-01   3.617e-01   0.000e+00
  -6.510e-01   2.893e-01   0.000e+00
  -6.148e-01   2.893e-01   0.000e+00
  -6.510e-01   3.255e-01   0.000e+00
  -5.787e-01   2.893e-01   0.000e+00
  -5.924e-01   3.031e-01   0.000e+00
  -6.049e-01   2.893e-01   0.000e+00
  -5.924e-01   3.031e-01   0.000e+00
  -6.049e-01   2.893e-01   0.000e+00
  -6.148e-01   3.255e-01   0.000e+00
  -6.148e-01   2.893e-01   0.000e+00
  -6.148e-01   3.255e-01   0.000e+00
  -6.510e-01   3.255e-01   0.000e+00
  -6.148e-01   2.893e-01   0.000e+00
  -6.510e-01   3.617e-01   0.000e+00
  -6.510e-01   3.255e-01   0.000e+00
  -6.148e-01   3.255e-01   0.000e+00
  -5.787e-01   2.893e-01   0.000e+00
  -5.425e-01   2.893e-01   0.000e+00
  -5.787e-01   3.130e-01   0.000e+00
  -5.711e-01   3.179e-01   0.000e+00
  -5.787e-01   3.130e-01   0.000e+00
  -5.711e-01   3.179e-01   0.000e+00
  -5.787e-01   3.255e-01   0.000e+00
  -5.063e-01   2.893e-01   0.000e+00
  -5.425e-01   3.255e-01   0.000e+00
  -5.425e-01   2.893e-01   0.000e+00
  -5.425e-01   3.255e-01   0.000e+00
  -5.711e-01   3.179e-01   0.000e+00
  -5.547e-01   3.255e-01   0.000e+00
  -5.425e-01   2.893e-01   0.000e+00
  -5.711e-01   3.179e-01   0.000e+00
  -5.547e-01   3.255e-01   0.000e+00
  -5.787e-01   3.255e-01   0.000e+00
  -5.547e-01   3.255e-01   0.000e+00
  -5.465e-01   3.295e-01   0.000e+00
  -5.425e-01   3.255e-01   0.000e+00
  -5.787e-01   3.617e-01   0.000e+00
  -5.787e-01   3.255e-01   0.000e+00
  -5.547e-01   3.255e-01   0.000e+00
  -5.465e-01   3.295e-01   0.000e+00
  -5.063e-01   2.893e-01   0.000e+00
  -4.702e-01   2.893e-01   0.000e+00
  -5.063e-01   3.255e-01   0.000e+00
  -4.340e-01   2.893e-01   0.000e+00
  -4.702e-01   3.255e-01   0.000e+00
  -4.702e-01   2.893e-01   0.000e+00
  -4.702e-01   3.255e-01   0.000e+00
  -5.063e-01   3.255e-01   0.000e+00
  -4.702e-01   2.893e-01   0.000e+00
  -5.063e-01   3.406e-01   0.000e+00
  -4.877e-01   3.430e-01   0.000e+00
  -5.063e-01   3.255e-01   0.000e+00
  -4.702e-01   3.255e-01   0.000e+00
  -5.063e-01   3.617e-01   0.000e+00
  -5.063e-01   3.406e-01   0.000e+00
  -4.877e-01   3.430e-01   0.000e+00
  -4.340e-01   2.893e-01   0.000e+00
  -3.978e-01   2.893e-01   0.000e+00
  -4.340e-01   3.255e-01   0.000e+00
  -3.617e-01   2.893e-01   0.000e+00
  -3.978e-01   3.255e-01   0.000e+00
  -3.978e-01   2.893e-01   0.000e+00
  -3.978e-01   3.255e-01   0.000e+00
  -4.340e-01   3.255e-01   0.000e+00
  -3.978e-01   2.893e-01   0.000e+00
  -4.340e-01   3.459e-01   0.000e+00
  -4.171e-01   3.448e-01   0.000e+00
  -4.340e-01   3.255e-01   0.000e+00
  -3.978e-01   3.255e-01   0.000e+00
  -4.340e-01   3.617e-01   0.000e+00
  -4.340e-01   3.459e-01   0.000e+00
  -4.171e-01   3.448e-01   0.000e+00
  -3.617e-01   2.893e-01   0.000e+00
  -3.255e-01   2.893e-01   0.000e+00
  -3.617e-01   3.255e-01   0.000e+00
  -2.893e-01   2.893e-01   0.000e+00
  -3.255e-01   3.255e-01   0.000e+00
  -3.255e-01   2.893e-01   0.000e+00
  -3.255e-01   3.255e-01   0.000e+00
  -3.617e-01   3.255e-01   0.000e+00
  -3.255e-01   2.893e-01   0.000e+00
  -3.617e-01   3.389e-01   0.000e+00
  -3.334e-01   3.334e-01   0.000e+00
  -3.617e-01   3.255e-01   0.000e+00
  -3.255e-01   3.255e-01   0.000e+00
  -3.617e-01   3.617e-01   0.000e+00
  -3.617e-01   3.389e-01   0.000e+00
  -3.334e-01   3.334e-01   0.000e+00
  -2.893e-01   2.893e-01   0.000e+00
  -2.532e-01   2.893e-01   0.000e+00
  -2.893e-01   3.231e-01   0.000e+00
  -2.859e-01   3.221e-01   0.000e+00
  -2.893e-01   3.231e-01   0.000e+00
  -2.859e-01   3.221e-01   0.000e+00
  -2.893e-01   3.255e-01   0.000e+00
  -2.170e-01   2.893e-01   0.000e+00
  -2.341e-01   3.064e-01   0.000e+00
  -2.532e-01   3.126e-01   0.000e+00
  -2.532e-01   2.893e-01   0.000e+00
  -2.341e-01   3.064e-01   0.000e+00
  -2.532e-01   3.126e-01   0.000e+00
  -2.532e-01   3.255e-01   0.000e+00
  -2.859e-01   3.221e-01   0.000e+00
  -2.532e-01   3.126e-01   0.000e+00
  -2.532e-01   2.893e-01   0.000e+00
  -2.532e-01   3.255e-01   0.000e+00
  -2.893e-01   3.255e-01   0.000e+00
  -2.859e-01   3.221e-01   0.000e+00
  -2.532e-01   3.126e-01   0.000e+00
  -2.893e-01   3.617e-01   0.000e+00
  -2.893e-01   3.255e-01   0.000e+00
  -2.532e-01   3.255e-01   0.000e+00
  -2.170e-01   2.893e-01   0.000e+00
  -1.808e-01   2.893e-01   0.000e+00
  -2.170e-01   3.010e-01   0.000e+00
  -1.811e-01   2.896e-01   0.000e+00
  -2.170e-01   3.010e-01   0.000e+00
  -1.811e-01   2.896e-01   0.000e+00
  -2.170e-01   3.255e-01   0.000e+00
  -1.800e-01   2.893e-01   0.000e+00
  -1.808e-01   2.895e-01   0.000e+00
  -1.808e-01   2.893e-01   0.000e+00
  -1.447e-01   2.893e-01   0.000e+00
  -1.808e-01   3.255e-01   0.000e+00
  -1.800e-01   2.893e-01   0.000e+00
  -1.808e-01   2.895e-01   0.000e+00
  -1.811e-01   2.896e-01   0.000e+00
  -1.808e-01   2.895e-01   0.000e+00
  -1.808e-01   2.893e-01   0.000e+00
  -1.808e-01   3.255e-01   0.000e+00
  -2.170e-01   3.255e-01   0.000e+00
  -1.811e-01   2.896e-01   0.000e+00
  -1.808e-01   2.895e-01   0.000e+00
  -2.170e-01   3.617e-01   0.000e+00
  -2.170e-01   3.255e-01   0.000e+00
  -1.808e-01   3.255e-01   0.000e+00
  -1.353e-01   2.893e-01   0.000e+00
  -1.231e-01   3.040e-01   0.000e+00
  -1.085e-01   2.893e-01   0.000e+00
  -1.447e-01   2.893e-01   0.000e+00
  -1.353e-01   2.893e-01   0.000e+00
  -1.231e-01   3.040e-01   0.000e+00
  -1.447e-01   3.255e-01   0.000e+00
  -7.233e-02   2.893e-01   0.000e+00
  -1.085e-01   3.255e-01   0.000e+00
  -1.085e-01   2.893e-01   0.000e+00
  -1.085e-01   3.255e-01   0.000e+00
  -1.231e-01   3.040e-01   0.000e+00
  -1.188e-01   3.255e-01   0.000e+00
  -1.085e-01   2.893e-01   0.000e+00
  -1.231e-01   3.040e-01   0.000e+00
  -1.188e-01   3.255e-01   0.000e+00
  -1.447e-01   3.255e-01   0.000e+00
  -1.188e-01   3.255e-01   0.000e+00
  -1.186e-01   3.356e-01   0.000e+00
  -1.085e-01   3.255e-01   0.000e+00
  -1.447e-01   3.617e-01   0.000e+00
  -1.447e-01   3.255e-01   0.000e+00
  -1.188e-01   3.255e-01   0.000e+00
  -1.186e-01   3.356e-01   0.000e+00
  -7.233e-02   2.893e-01   0.000e+00
   0.000e+00   2.893e-01   0.000e+00
  -7.233e-02   3.617e-01   0.000e+00
   0.000e+00   2.893e-01   0.000e+00
   7.233e-02   2.893e-01   0.000e+00
   0.000e+00   3.617e-01   0.000e+00
   7.233e-02   2.893e-01   0.000e+00
   1.447e-01   2.893e-01   0.000e+00
   7.233e-02   3.617e-01   0.000e+00
   1.447e-01   2.893e-01   0.000e+00
   2.170e-01   2.893e-01   0.000e+00
   1.447e-01   3.617e-01   0.000e+00
   2.170e-01   2.893e-01   0.000e+00
   2.258e-01   2.893e-01   0.000e+00
   2.170e-01   2.941e-01   0.000e+00
   2.258e-01   2.893e-01   0.000e+00
   2.170e-01   2.941e-01   0.000e+00
   2.532e-01   2.893e-01   0.000e+00
   2.170e-01   3.255e-01   0.000e+00
   2.893e-01   2.893e-01   0.000e+00
   2.847e-01   2.940e-01   0.000e+00
   2.682e-01   2.893e-01   0.000e+00
   2.847e-01   2.940e-01   0.000e+00
   2.682e-01   2.893e-01   0.000e+00
   2.532e-01   3.255e-01   0.000e+00
   2.532e-01   2.893e-01   0.000e+00
   2.532e-01   3.255e-01   0.000e+00
   2.170e-01   3.255e-01   0.000e+00
   2.532e-01   2.893e-01   0.000e+00
   2.170e-01   3.617e-01   0.000e+00
   2.170e-01   3.255e-01   0.000e+00
   2.532e-01   3.255e-01   0.000e+00
   2.893e-01   2.893e-01   0.000e+00
   3.255e-01   2.893e-01   0.000e+00
   2.893e-01   2.954e-01   0.000e+00
   3.121e-01   3.028e-01   0.000e+00
   2.893e-01   2.954e-01   0.000e+00
   3.121e-01   3.028e-01   0.000e+00
   2.893e-01   3.255e-01   0.000e+00
   3.617e-01   2.893e-01   0.000e+00
   3.395e-01   3.115e-01   0.000e+00
   3.255e-01   3.072e-01   0.000e+00
   3.255e-01   2.893e-01   0.000e+00
   3.395e-01   3.115e-01   0.000e+00
   3.255e-01   3.072e-01   0.000e+00
   3.255e-01   3.255e-01   0.000e+00
   3.121e-01   3.028e-01   0.000e+00
   3.255e-01   3.072e-01   0.000e+00
   3.255e-01   2.893e-01   0.000e+00
   3.255e-01   3.255e-01   0.000e+00
   2.893e-01   3.255e-01   0.000e+00
   3.121e-01   3.028e-01   0.000e+00
   3.255e-01   3.072e-01   0.000e+00
   2.893e-01   3.617e-01   0.000e+00
   2.893e-01   3.255e-01   0.000e+00
   3.255e-01   3.255e-01   0.000e+00
   3.617e-01   2.893e-01   0.000e+00
   3.978e-01   2.893e-01   0.000e+00
   3.617e-01   3.183e-01   0.000e+00
   3.673e-01   3.199e-01   0.000e+00
   3.617e-01   3.183e-01   0.000e+00
   3.673e-01   3.199e-01   0.000e+00
   3.617e-01   3.255e-01   0.000e+00
   4.340e-01   2.893e-01   0.000e+00
   3.978e-01   3.255e-01   0.000e+00
   3.978e-01   2.893e-01   0.000e+00
   3.978e-01   3.255e-01   0.000e+00
   3.673e-01   3.199e-01   0.000e+00
   3.885e-01   3.255e-01   0.000e+00
   3.978e-01   2.893e-01   0.000e+00
   3.673e-01   3.199e-01   0.000e+00
   3.885e-01   3.255e-01   0.000e+00
   3.617e-01   3.255e-01   0.000e+00
   3.885e-01   3.255e-01   0.000e+00
   3.959e-01   3.275e-01   0.000e+00
   3.978e-01   3.255e-01   0.000e+00
   3.617e-01   3.617e-01   0.000e+00
   3.617e-01   3.255e-01   0.000e+00
   3.885e-01   3.255e-01   0.000e+00
   3.959e-01   3.275e-01   0.000e+00
   4.340e-01   2.893e-01   0.000e+00
   4.702e-01   2.893e-01   0.000e+00
   4.340e-01   3.255e-01   0.000e+00
   5.063e-01   2.893e-01   0.000e+00
   4.702e-01   3.255e-01   0.000e+00
   4.702e-01   2.893e-01   0.000e+00
   4.702e-01   3.255e-01   0.000e+00
   4.340e-01   3.255e-01   0.000e+00
   4.702e-01   2.893e-01   0.000e+00
   4.340e-01   3.359e-01   0.000e+00
   4.561e-01   3.395e-01   0.000e+00
   4.340e-01   3.255e-01   0.000e+00
   4.702e-01   3.255e-01   0.000e+00
   4.340e-01   3.617e-01   0.000e+00
   4.340e-01   3.359e-01   0.000e+00
   4.561e-01   3.395e-01   0.000e+00
   5.063e-01   2.893e-01   0.000e+00
   5.425e-01   2.893e-01   0.000e+00
   5.063e-01   3.255e-01   0.000e+00
   5.787e-01   2.893e-01   0.000e+00
   5.425e-01   3.255e-01   0.000e+00
   5.425e-01   2.893e-01   0.000e+00
   5.425e-01   3.255e-01   0.000e+00
   5.063e-01   3.255e-01   0.000e+00
   5.425e-01   2.893e-01   0.000e+00
   5.063e-01   3.452e-01   0.000e+00
   5.225e-01   3.455e-01   0.000e+00
   5.063e-01   3.255e-01   0.000e+00
   5.425e-01   3.255e-01   0.000e+00
   5.063e-01   3.617e-01   0.000e+00
   5.063e-01   3.452e-01   0.000e+00
   5.225e-01   3.455e-01   0.000e+00
   5.787e-01   2.893e-01   0.000e+00
   6.148e-01   2.893e-01   0.000e+00
   5.787e-01   3.255e-01   0.000e+00
   6.510e-01   2.893e-01   0.000e+00
   6.148e-01   3.255e-01   0.000e+00
   6.148e-01   2.893e-01   0.000e+00
   6.148e-01   3.255e-01   0.000e+00
   5.787e-01   3.255e-01   0.000e+00
   6.148e-01   2.893e-01   0.000e+00
   5.787e-01   3.432e-01   0.000e+00
   6.017e-01   3.386e-01   0.000e+00
   5.787e-01   3.255e-01   0.000e+00
   6.148e-01   3.255e-01   0.000e+00
   5.787e-01   3.617e-01   0.000e+00
   5.787e-01   3.432e-01   0.000e+00
   6.017e-01   3.386e-01   0.000e+00
   6.510e-01   2.893e-01   0.000e+00
   6.872e-01   2.893e-01   0.000e+00
   6.510e-01   3.230e-01   0.000e+00
   6.605e-01   3.160e-01   0.000e+00
   6.510e-01   3.230e-01   0.000e+00
   6.605e-01   3.160e-01   0.000e+00
   6.510e-01   3.255e-01   0.000e+00
   6.946e-01   2.893e-01   0.000e+00
   6.872e-01   2.975e-01   0.000e+00
   6.872e-01   2.893e-01   0.000e+00
   7.233e-01   2.893e-01   0.000e+00
   6.872e-01   3.255e-01   0.000e+00
   6.946e-01   2.893e-01   0.000e+00
   6.872e-01   2.975e-01   0.000e+00
   6.605e-01   3.160e-01   0.000e+00
   6.872e-01   2.975e-01   0.000e+00
   6.872e-01   2.893e-01   0.000e+00
   6.872e-01   3.255e-01   0.000e+00
   6.510e-01   3.255e-01   0.000e+00
   6.605e-01   3.160e-01   0.000e+00
   6.872e-01   2.975e-01   0.000e+00
   6.510e-01   3.617e-01   0.000e+00
   6.510e-01   3.255e-01   0.000e+00
   6.872e-01   3.255e-01   0.000e+00
   7.233e-01   2.893e-01   0.000e+00
   7.957e-01   2.893e-01   0.000e+00
   7.233e-01   3.617e-01   0.000e+00
   7.957e-01   2.893e-01   0.000e+00
   8.680e-01   2.893e-01   0.000e+00
   7.957e-01   3.617e-01   0.000e+00
   8.680e-01   2.893e-01   0.000e+00
   9.403e-01   2.893e-01   0.000e+00
   8.680e-01   3.617e-01   0.000e+00
   9.403e-01   2.893e-01   0.000e+00
   1.013e+00   2.893e-01   0.000e+00
   9.403e-01   3.617e-01   0.000e+00
   1.013e+00   2.893e-01   0.000e+00
   1.085e+00   2.893e-01   0.000e+00
   1.013e+00   3.617e-01   0.000e+00
  -1.085e+00   3.617e-01   0.000e+00
  -1.013e+00   3.617e-01   0.000e+00
  -1.085e+00   4.340e-01   0.000e+00
  -1.013e+00   3.617e-01   0.000e+00
  -9.403e-01   3.617e-01   0.000e+00
  -1.013e+00   4.340e-01   0.000e+00
  -9.403e-01   3.617e-01   0.000e+00
  -8.680e-01   3.617e-01   0.000e+00
  -9.403e-01   4.340e-01   0.000e+00
  -8.680e-01   3.617e-01   0.000e+00
  -7.957e-01   3.617e-01   0.000e+00
  -8.680e-01   4.340e-01   0.000e+00
  -7.957e-01   3.617e-01   0.000e+00
  -7.233e-01   3.617e-01   0.000e+00
  -7.957e-01   4.340e-01   0.000e+00
  -7.233e-01   3.617e-01   0.000e+00
  -6.510e-01   3.617e-01   0.000e+00
  -7.233e-01   4.340e-01   0.000e+00
  -6.510e-01   3.617e-01   0.000e+00
  -5.787e-01   3.617e-01   0.000e+00
  -6.510e-01   4.340e-01   0.000e+00
  -5.787e-01   3.617e-01   0.000e+00
  -5.063e-01   3.617e-01   0.000e+00
  -5.787e-01   4.340e-01   0.000e+00
  -5.063e-01   3.617e-01   0.000e+00
  -4.340e-01   3.617e-01   0.000e+00
  -5.063e-01   4.340e-01   0.000e+00
  -4.340e-01   3.617e-01   0.000e+00
  -3.617e-01   3.617e-01   0.000e+00
  -4.340e-01   4.340e-01   0.000e+00
  -3.617e-01   3.617e-01   0.000e+00
  -2.893e-01   3.617e-01   0.000e+00
  -3.617e-01   4.340e-01   0.000e+00
  -2.893e-01   3.617e-01   0.000e+00
  -2.170e-01   3.617e-01   0.000e+00
  -2.893e-01   4.340e-01   0.000e+00
  -2.170e-01   3.617e-01   0.000e+00
  -1.447e-01   3.617e-01   0.000e+00
  -2.170e-01   4.340e-01   0.000e+00
  -1.181e-01   3.617e-01   0.000e+00
  -1.181e-01   3.712e-01   0.000e+00
  -1.085e-01   3.617e-01   0.000e+00
  -1.447e-01   3.617e-01   0.000e+00
  -1.181e-01   3.617e-01   0.000e+00
  -1.181e-01   3.712e-01   0.000e+00
  -1.447e-01   3.978e-01   0.000e+00
  -7.233e-02   3.617e-01   0.000e+00
  -1.085e-01   3.978e-01   0.000e+00
  -1.085e-01   3.617e-01   0.000e+00
  -1.085e-01   3.978e-01   0.000e+00
  -1.181e-01   3.712e-01   0.000e+00
  -1.181e-01   3.978e-01   0.000e+00
  -1.085e-01   3.617e-01   0.000e+00
  -1.181e-01   3.712e-01   0.000e+00
  -1.181e-01   3.978e-01   0.000e+00
  -1.447e-01   3.978e-01   0.000e+00
  -1.181e-01   3.978e-01   0.000e+00
  -1.179e-01   4.072e-01   0.000e+00
  -1.085e-01   3.978e-01   0.000e+00
  -1.447e-01   4.340e-01   0.000e+00
  -1.447e-01   3.978e-01   0.000e+00
  -1.181e-01   3.978e-01   0.000e+00
  -1.179e-01   4.072e-01   0.000e+00
  -7.233e-02   3.617e-01   0.000e+00
   0.000e+00   3.617e-01   0.000e+00
  -7.233e-02   4.340e-01   0.000e+00
   0.000e+00   3.617e-01   0.000e+00
   7.233e-02   3.617e-01   0.000e+00
   0.000e+00   4.340e-01   0.000e+00
   7.233e-02   3.617e-01   0.000e+00
   1.447e-01   3.617e-01   0.000e+00
   7.233e-02   4.340e-01   0.000e+00
   1.447e-01   3.617e-01   0.000e+00
   1.808e-01   3.617e-01   0.000e+00
   1.447e-01   3.978e-01   0.000e+00
   2.075e-01   3.712e-01   0.000e+00
   2.075e-01   3.617e-01   0.000e+00
   1.808e-01   3.978e-01   0.000e+00
   1.808e-01   3.617e-01   0.000e+00
   2.170e-01   3.617e-01   0.000e+00
   2.075e-01   3.712e-01   0.000e+00
   2.075e-01   3.617e-01   0.000e+00
   1.808e-01   3.978e-01   0.000e+00
   1.447e-01   3.978e-01   0.000e+00
   1.808e-01   3.617e-01   0.000e+00
   1.447e-01   4.340e-01   0.000e+00
   1.447e-01   3.978e-01   0.000e+00
   1.808e-01   3.978e-01   0.000e+00
   2.170e-01   3.617e-01   0.000e+00
   2.893e-01   3.617e-01   0.000e+00
   2.170e-01   4.340e-01   0.000e+00
   2.893e-01   3.617e-01   0.000e+00
   3.617e-01   3.617e-01   0.000e+00
   2.893e-01   4.340e-01   0.000e+00
   3.617e-01   3.617e-01   0.000e+00
   4.340e-01   3.617e-01   0.000e+00
   3.617e-01   4.340e-01   0.000e+00
   4.340e-01   3.617e-01   0.000e+00
   5.063e-01   3.617e-01   0.000e+00
   4.340e-01   4.340e-01   0.000e+00
   5.063e-01   3.617e-01   0.000e+00
   5.787e-01   3.617e-01   0.000e+00
   5.063e-01   4.340e-01   0.000e+00
   5.787e-01   3.617e-01   0.000e+00
   6.510e-01   3.617e-01   0.000e+00
   5.787e-01   4.340e-01   0.000e+00
   6.510e-01   3.617e-01   0.000e+00
   7.233e-01   3.617e-01   0.000e+00
   6.510e-01   4.340e-01   0.000e+00
   7.233e-01   3.617e-01   0.000e+00
   7.957e-01   3.617e-01   0.000e+00
   7.233e-01   4.340e-01   0.000e+00
   7.957e-01   3.617e-01   0.000e+00
   8.680e-01   3.617e-01   0.000e+00
   7.957e-01   4.340e-01   0.000e+00
   8.680e-01   3.617e-01   0.000e+00
   9.403e-01   3.617e-01   0.000e+00
   8.680e-01   4.340e-01   0.000e+00
   9.403e-01   3.617e-01   0.000e+00
   1.013e+00   3.617e-01   0.000e+00
   9.403e-01   4.340e-01   0.000e+00
   1.013e+00   3.617e-01   0.000e+00
   1.085e+00   3.617e-01   0.000e+00
   1.013e+00   4.340e-01   0.000e+00
  -1.085e+00   4.340e-01   0.000e+00
  -1.013e+00   4.340e-01   0.000e+00
  -1.085e+00   5.063e-01   0.000e+00
  -1.013e+00   4.340e-01   0.000e+00
  -9.403e-01   4.340e-01   0.000e+00
  -1.013e+00   5.063e-01   0.000e+00
  -9.403e-01   4.340e-01   0.000e+00
  -8.680e-01   4.340e-01   0.000e+00
  -9.403e-01   5.063e-01   0.000e+00
  -8.680e-01   4.340e-01   0.000e+00
  -7.957e-01   4.340e-01   0.000e+00
  -8.680e-01   5.063e-01   0.000e+00
  -7.957e-01   4.340e-01   0.000e+00
  -7.233e-01   4.340e-01   0.000e+00
  -7.957e-01   5.063e-01   0.000e+00
  -7.233e-01   4.340e-01   0.000e+00
  -6.510e-01   4.340e-01   0.000e+00
  -7.233e-01   5.063e-01   0.000e+00
  -6.510e-01   4.340e-01   0.000e+00
  -5.787e-01   4.340e-01   0.000e+00
  -6.510e-01   5.063e-01   0.000e+00
  -5.787e-01   4.340e-01   0.000e+00
  -5.063e-01   4.340e-01   0.000e+00
  -5.787e-01   5.063e-01   0.000e+00
  -5.063e-01   4.340e-01   0.000e+00
  -4.340e-01   4.340e-01   0.000e+00
  -5.063e-01   5.063e-01   0.000e+00
  -4.340e-01   4.340e-01   0.000e+00
  -3.617e-01   4.340e-01   0.000e+00
  -4.340e-01   5.063e-01   0.000e+00
  -3.617e-01   4.340e-01   0.000e+00
  -2.893e-01   4.340e-01   0.000e+00
  -3.617e-01   5.063e-01   0.000e+00
  -2.893e-01   4.340e-01   0.000e+00
  -2.170e-01   4.340e-01   0.000e+00
  -2.893e-01   5.063e-01   0.000e+00
  -2.170e-01   4.340e-01   0.000e+00
  -1.447e-01   4.340e-01   0.000e+00
  -2.170e-01   5.063e-01   0.000e+00
  -1.174e-01   4.340e-01   0.000e+00
  -1.170e-01   4.425e-01   0.000e+00
  -1.085e-01   4.340e-01   0.000e+00
  -1.447e-01   4.340e-01   0.000e+00
  -1.174e-01   4.340e-01   0.000e+00
  -1.170e-01   4.425e-01   0.000e+00
  -1.447e-01   4.702e-01   0.000e+00
  -7.233e-02   4.340e-01   0.000e+00
  -1.085e-01   4.702e-01   0.000e+00
  -1.085e-01   4.340e-01   0.000e+00
  -1.085e-01   4.702e-01   0.000e+00
  -1.170e-01   4.425e-01   0.000e+00
  -1.154e-01   4.702e-01   0.000e+00
  -1.085e-01   4.340e-01   0.000e+00
  -1.170e-01   4.425e-01   0.000e+00
  -1.154e-01   4.702e-01   0.000e+00
  -1.447e-01   4.702e-01   0.000e+00
  -1.154e-01   4.702e-01   0.000e+00
  -1.148e-01   4.765e-01   0.000e+00
  -1.085e-01   4.702e-01   0.000e+00
  -1.447e-01   5.063e-01   0.000e+00
  -1.447e-01   4.702e-01   0.000e+00
  -1.154e-01   4.702e-01   0.000e+00
  -1.148e-01   4.765e-01   0.000e+00
  -7.233e-02   4.340e-01   0.000e+00
   0.000e+00   4.340e-01   0.000e+00
  -7.233e-02   5.063e-01   0.000e+00
   0.000e+00   4.340e-01   0.000e+00
   7.233e-02   4.340e-01   0.000e+00
   0.000e+00   5.063e-01   0.000e+00
   7.233e-02   4.340e-01   0.000e+00
   1.447e-01   4.340e-01   0.000e+00
   7.233e-02   5.063e-01   0.000e+00
   1.447e-01   4.340e-01   0.000e+00
   1.808e-01   4.340e-01   0.000e+00
   1.447e-01   4.702e-01   0.000e+00
   2.062e-01   4.448e-01   0.000e+00
   2.068e-01   4.340e-01   0.000e+00
   1.808e-01   4.702e-01   0.000e+00
   1.808e-01   4.340e-01   0.000e+00
   2.170e-01   4.340e-01   0.000e+00
   2.062e-01   4.448e-01   0.000e+00
   2.068e-01   4.340e-01   0.000e+00
   1.808e-01   4.702e-01   0.000e+00
   1.447e-01   4.702e-01   0.000e+00
   1.808e-01   4.340e-01   0.000e+00
   1.447e-01   5.063e-01   0.000e+00
   1.447e-01   4.702e-01   0.000e+00
   1.808e-01   4.702e-01   0.000e+00
   2.170e-01   4.340e-01   0.000e+00
   2.893e-01   4.340e-01   0.000e+00
   2.170e-01   5.063e-01   0.000e+00
   2.893e-01   4.340e-01   0.000e+00
   3.617e-01   4.340e-01   0.000e+00
   2.893e-01   5.063e-01   0.000e+00
   3.617e-01   4.340e-01   0.000e+00
   4.340e-01   4.340e-01   0.000e+00
   3.617e-01   5.063e-01   0.000e+00
   4.340e-01   4.340e-01   0.000e+00
   5.063e-01   4.340e-01   0.000e+00
   4.340e-01   5.063e-01   0.000e+00
   5.063e-01   4.340e-01   0.000e+00
   5.787e-01   4.340e-01   0.000e+00
   5.063e-01   5.063e-01   0.000e+00
   5.787e-01   4.340e-01   0.000e+00
   6.510e-01   4.340e-01   0.000e+00
   5.787e-01   5.063e-01   0.000e+00
   6.510e-01   4.340e-01   0.000e+00
   7.233e-01   4.340e-01   0.000e+00
   6.510e-01   5.063e-01   0.000e+00
   7.233e-01   4.340e-01   0.000e+00
   7.957e-01   4.340e-01   0.000e+00
   7.233e-01   5.063e-01   0.000e+00
   7.957e-01   4.340e-01   0.000e+00
   8.680e-01   4.340e-01   0.000e+00
   7.957e-01   5.063e-01   0.000e+00
   8.680e-01   4.340e-01   0.000e+00
   9.403e-01   4.340e-01   0.000e+00
   8.680e-01   5.063e-01   0.000e+00
   9.403e-01   4.340e-01   0.000e+00
   1.013e+00   4.340e-01   0.000e+00
   9.403e-01   5.063e-01   0.000e+00
   1.013e+00   4.340e-01   0.000e+00
   1.085e+00   4.340e-01   0.000e+00
   1.013e+00   5.063e-01   0.000e+00
  -1.085e+00   5.063e-01   0.000e+00
  -1.013e+00   5.063e-01   0.000e+00
  -1.085e+00   5.787e-01   0.000e+00
  -1.013e+00   5.063e-01   0.000e+00
  -9.403e-01   5.063e-01   0.000e+00
  -1.013e+00   5.787e-01   0.000e+00
  -9.403e-01   5.063e-01   0.000e+00
  -8.680e-01   5.063e-01   0.000e+00
  -9.403e-01   5.787e-01   0.000e+00
  -8.680e-01   5.063e-01   0.000e+00
  -7.957e-01   5.063e-01   0.000e+00
  -8.680e-01   5.787e-01   0.000e+00
  -7.957e-01   5.063e-01   0.000e+00
  -7.233e-01   5.063e-01   0.000e+00
  -7.957e-01   5.787e-01   0.000e+00
  -7.233e-01   5.063e-01   0.000e+00
  -6.510e-01   5.063e-01   0.000e+00
  -7.233e-01   5.787e-01   0.000e+00
  -6.510e-01   5.063e-01   0.000e+00
  -5.787e-01   5.063e-01   0.000e+00
  -6.510e-01   5.787e-01   0.000e+00
  -5.787e-01   5.063e-01   0.000e+00
  -5.063e-01   5.063e-01   0.000e+00
  -5.787e-01   5.787e-01   0.000e+00
  -5.063e-01   5.063e-01   0.000e+00
  -4.340e-01   5.063e-01   0.000e+00
  -5.063e-01   5.787e-01   0.000e+00
  -4.340e-01   5.063e-01   0.000e+00
  -3.617e-01   5.063e-01   0.000e+00
  -4.340e-01   5.787e-01   0.000e+00
  -3.617e-01   5.063e-01   0.000e+00
  -2.893e-01   5.063e-01   0.000e+00
  -3.617e-01   5.787e-01   0.000e+00
  -2.893e-01   5.063e-01   0.000e+00
  -2.170e-01   5.063e-01   0.000e+00
  -2.893e-01   5.787e-01   0.000e+00
  -2.170e-01   5.063e-01   0.000e+00
  -1.447e-01   5.063e-01   0.000e+00
  -2.170e-01   5.787e-01   0.000e+00
  -1.117e-01   5.063e-01   0.000e+00
  -1.113e-01   5.091e-01   0.000e+00
  -1.085e-01   5.063e-01   0.000e+00
  -1.447e-01   5.063e-01   0.000e+00
  -1.117e-01   5.063e-01   0.000e+00
  -1.113e-01   5.091e-01   0.000e+00
  -1.447e-01   5.425e-01   0.000e+00
  -7.233e-02   5.063e-01   0.000e+00
  -1.064e-01   5.404e-01   0.000e+00
  -1.085e-01   5.268e-01   0.000e+00
  -1.085e-01   5.063e-01   0.000e+00
  -1.064e-01   5.404e-01   0.000e+00
  -1.085e-01   5.268e-01   0.000e+00
  -1.085e-01   5.425e-01   0.000e+00
  -1.113e-01   5.091e-01   0.000e+00
  -1.085e-01   5.268e-01   0.000e+00
  -1.085e-01   5.063e-01   0.000e+00
  -1.085e-01   5.425e-01   0.000e+00
  -1.447e-01   5.425e-01   0.000e+00
  -1.113e-01   5.091e-01   0.000e+00
  -1.085e-01   5.268e-01   0.000e+00
  -1.447e-01   5.787e-01   0.000e+00
  -1.447e-01   5.425e-01   0.000e+00
  -1.085e-01   5.425e-01   0.000e+00
  -7.233e-02   5.063e-01   0.000e+00
   0.000e+00   5.063e-01   0.000e+00
  -7.233e-02   5.787e-01   0.000e+00
   0.000e+00   5.063e-01   0.000e+00
   7.233e-02   5.063e-01   0.000e+00
   0.000e+00   5.787e-01   0.000e+00
   7.233e-02   5.063e-01   0.000e+00
   1.447e-01   5.063e-01   0.000e+00
   7.233e-02   5.787e-01   0.000e+00
   1.447e-01   5.063e-01   0.000e+00
   1.808e-01   5.063e-01   0.000e+00
   1.447e-01   5.425e-01   0.000e+00
   1.981e-01   5.252e-01   0.000e+00
   2.012e-01   5.063e-01   0.000e+00
   1.808e-01   5.425e-01   0.000e+00
   1.808e-01   5.063e-01   0.000e+00
   2.170e-01   5.063e-01   0.000e+00
   1.981e-01   5.252e-01   0.000e+00
   2.012e-01   5.063e-01   0.000e+00
   1.808e-01   5.425e-01   0.000e+00
   1.447e-01   5.425e-01   0.000e+00
   1.808e-01   5.063e-01   0.000e+00
   1.447e-01   5.787e-01   0.000e+00
   1.447e-01   5.425e-01   0.000e+00
   1.808e-01   5.425e-01   0.000e+00
   2.170e-01   5.063e-01   0.000e+00
   2.893e-01   5.063e-01   0.000e+00
   2.170e-01   5.787e-01   0.000e+00
   2.893e-01   5.063e-01   0.000e+00
   3.617e-01   5.063e-01   0.000e+00
   2.893e-01   5.787e-01   0.000e+00
   3.617e-01   5.063e-01   0.000e+00
   4.340e-01   5.063e-01   0.000e+00
   3.617e-01   5.787e-01   0.000e+00
   4.340e-01   5.063e-01   0.000e+00
   5.063e-01   5.063e-01   0.000e+00
   4.340e-01   5.787e-01   0.000e+00
   5.063e-01   5.063e-01   0.000e+00
   5.787e-01   5.063e-01   0.000e+00
   5.063e-01   5.787e-01   0.000e+00
   5.787e-01   5.063e-01   0.000e+00
   6.510e-01   5.063e-01   0.000e+00
   5.787e-01   5.787e-01   0.000e+00
   6.510e-01   5.063e-01   0.000e+00
   7.233e-01   5.063e-01   0.000e+00
   6.510e-01   5.787e-01   0.000e+00
   7.233e-01   5.063e-01   0.000e+00
   7.957e-01   5.063e-01   0.000e+00
   7.233e-01   5.787e-01   0.000e+00
   7.957e-01   5.063e-01   0.000e+00
   8.680e-01   5.063e-01   0.000e+00
   7.957e-01   5.787e-01   0.000e+00
   8.680e-01   5.063e-01   0.000e+00
   9.403e-01   5.063e-01   0.000e+00
   8.680e-01   5.787e-01   0.000e+00
   9.403e-01   5.063e-01   0.000e+00
   1.013e+00   5.063e-01   0.000e+00
   9.403e-01   5.787e-01   0.000e+00
   1.013e+00   5.063e-01   0.000e+00
   1.085e+00   5.063e-01   0.000e+00
   1.013e+00   5.787e-01   0.000e+00
  -1.085e+00   5.787e-01   0.000e+00
  -1.013e+00   5.787e-01   0.000e+00
  -1.085e+00   6.510e-01   0.000e+00
  -1.013e+00   5.787e-01   0.000e+00
  -9.403e-01   5.787e-01   0.000e+00
  -1.013e+00   6.510e-01   0.000e+00
  -9.403e-01   5.787e-01   0.000e+00
  -8.680e-01   5.787e-01   0.000e+00
  -9.403e-01   6.510e-01   0.000e+00
  -8.680e-01   5.787e-01   0.000e+00
  -7.957e-01   5.787e-01   0.000e+00
  -8.680e-01   6.510e-01   0.000e+00
  -7.957e-01   5.787e-01   0.000e+00
  -7.233e-01   5.787e-01   0.000e+00
  -7.957e-01   6.510e-01   0.000e+00
  -7.233e-01   5.787e-01   0.000e+00
  -6.510e-01   5.787e-01   0.000e+00
  -7.233e-01   6.510e-01   0.000e+00
  -6.510e-01   5.787e-01   0.000e+00
  -5.787e-01   5.787e-01   0.000e+00
  -6.510e-01   6.510e-01   0.000e+00
  -5.787e-01   5.787e-01   0.000e+00
  -5.063e-01   5.787e-01   0.000e+00
  -5.787e-01   6.510e-01   0.000e+00
  -5.063e-01   5.787e-01   0.000e+00
  -4.340e-01   5.787e-01   0.000e+00
  -5.063e-01   6.510e-01   0.000e+00
  -4.340e-01   5.787e-01   0.000e+00
  -3.617e-01   5.787e-01   0.000e+00
  -4.340e-01   6.510e-01   0.000e+00
  -3.617e-01   5.787e-01   0.000e+00
  -2.893e-01   5.787e-01   0.000e+00
  -3.617e-01   6.510e-01   0.000e+00
  -2.893e-01   5.787e-01   0.000e+00
  -2.170e-01   5.787e-01   0.000e+00
  -2.893e-01   6.510e-01   0.000e+00
  -2.170e-01   5.787e-01   0.000e+00
  -1.447e-01   5.787e-01   0.000e+00
  -2.170e-01   6.510e-01   0.000e+00
  -1.447e-01   5.787e-01   0.000e+00
  -1.085e-01   5.787e-01   0.000e+00
  -1.447e-01   6.148e-01   0.000e+00
  -7.233e-02   5.787e-01   0.000e+00
  -9.197e-02   5.983e-01   0.000e+00
  -9.781e-02   5.787e-01   0.000e+00
  -9.197e-02   5.983e-01   0.000e+00
  -9.781e-02   5.787e-01   0.000e+00
  -1.085e-01   6.148e-01   0.000e+00
  -1.085e-01   5.787e-01   0.000e+00
  -1.085e-01   6.148e-01   0.000e+00
  -1.447e-01   6.148e-01   0.000e+00
  -1.085e-01   5.787e-01   0.000e+00
  -1.447e-01   6.510e-01   0.000e+00
  -1.447e-01   6.148e-01   0.000e+00
  -1.085e-01   6.148e-01   0.000e+00
  -7.233e-02   5.787e-01   0.000e+00
  -3.617e-02   5.787e-01   0.000e+00
  -7.233e-02   6.148e-01   0.000e+00
   0.000e+00   5.787e-01   0.000e+00
  -3.617e-02   6.148e-01   0.000e+00
  -3.617e-02   5.787e-01   0.000e+00
  -3.617e-02   6.148e-01   0.000e+00
  -7.233e-02   6.148e-01   0.000e+00
  -3.617e-02   5.787e-01   0.000e+00
  -7.233e-02   6.484e-01   0.000e+00
  -7.155e-02   6.502e-01   0.000e+00
  -7.233e-02   6.148e-01   0.000e+00
  -3.617e-02   6.148e-01   0.000e+00
  -7.233e-02   6.510e-01   0.000e+00
  -7.233e-02   6.484e-01   0.000e+00
  -7.155e-02   6.502e-01   0.000e+00
   0.000e+00   5.787e-01   0.000e+00
   7.233e-02   5.787e-01   0.000e+00
   0.000e+00   6.510e-01   0.000e+00
   7.233e-02   5.787e-01   0.000e+00
   1.447e-01   5.787e-01   0.000e+00
   7.233e-02   6.510e-01   0.000e+00
   1.447e-01   5.787e-01   0.000e+00
   1.808e-01   5.787e-01   0.000e+00
   1.447e-01   6.148e-01   0.000e+00
   1.873e-01   5.787e-01   0.000e+00
   1.808e-01   5.996e-01   0.000e+00
   1.808e-01   5.787e-01   0.000e+00
   2.170e-01   5.787e-01   0.000e+00
   1.808e-01   6.148e-01   0.000e+00
   1.873e-01   5.787e-01   0.000e+00
   1.808e-01   5.996e-01   0.000e+00
   1.808e-01   5.996e-01   0.000e+00
   1.760e-01   6.148e-01   0.000e+00
   1.447e-01   6.148e-01   0.000e+00
   1.808e-01   5.787e-01   0.000e+00
   1.808e-01   6.148e-01   0.000e+00
   1.808e-01   5.996e-01   0.000e+00
   1.760e-01   6.148e-01   0.000e+00
   1.447e-01   6.510e-01   0.000e+00
   1.447e-01   6.148e-01   0.000e+00
   1.760e-01   6.148e-01   0.000e+00
   1.721e-01   6.236e-01   0.000e+00
   1.760e-01   6.148e-01   0.000e+00
   1.721e-01   6.236e-01   0.000e+00
   1.808e-01   6.148e-01   0.000e+00
   2.170e-01   5.787e-01   0.000e+00
   2.893e-01   5.787e-01   0.000e+00
   2.170e-01   6.510e-01   0.000e+00
   2.893e-01   5.787e-01   0.000e+00
   3.617e-01   5.787e-01   0.000e+00
   2.893e-01   6.510e-01   0.000e+00
   3.617e-01   5.787e-01   0.000e+00
   4.340e-01   5.787e-01   0.000e+00
   3.617e-01   6.510e-01   0.000e+00
   4.340e-01   5.787e-01   0.000e+00
   5.063e-01   5.787e-01   0.000e+00
   4.340e-01   6.510e-01   0.000e+00
   5.063e-01   5.787e-01   0.000e+00
   5.787e-01   5.787e-01   0.000e+00
   5.063e-01   6.510e-01   0.000e+00
   5.787e-01   5.787e-01   0.000e+00
   6.510e-01   5.787e-01   0.000e+00
   5.787e-01   6.510e-01   0.000e+00
   6.510e-01   5.787e-01   0.000e+00
   7.233e-01   5.787e-01   0.000e+00
   6.510e-01   6.510e-01   0.000e+00
   7.233e-01   5.787e-01   0.000e+00
   7.957e-01   5.787e-01   0.000e+00
   7.233e-01   6.510e-01   0.000e+00
   7.957e-01   5.787e-01   0.000e+00
   8.680e-01   5.787e-01   0.000e+00
   7.957e-01   6.510e-01   0.000e+00
   8.680e-01   5.787e-01   0.000e+00
   9.403e-01   5.787e-01   0.000e+00
   8.680e-01   6.510e-01   0.000e+00
   9.403e-01   5.787e-01   0.000e+00
   1.013e+00   5.787e-01   0.000e+00
   9.403e-01   6.510e-01   0.000e+00
   1.013e+00   5.787e-01   0.000e+00
   1.085e+00   5.787e-01   0.000e+00
   1.013e+00   6.510e-01   0.000e+00
  -1.085e+00   6.510e-01   0.000e+00
  -1.013e+00   6.510e-01   0.000e+00
  -1.085e+00   7.233e-01   0.000e+00
  -1.013e+00   6.510e-01   0.000e+00
  -9.403e-01   6.510e-01   0.000e+00
  -1.013e+00   7.233e-01   0.000e+00
  -9.403e-01   6.510e-01   0.000e+00
  -8.680e-01   6.510e-01   0.000e+00
  -9.403e-01   7.233e-01   0.000e+00
  -8.680e-01   6.510e-01   0.000e+00
  -7.957e-01   6.510e-01   0.000e+00
  -8.680e-01   7.233e-01   0.000e+00
  -7.957e-01   6.510e-01   0.000e+00
  -7.233e-01   6.510e-01   0.000e+00
  -7.957e-01   7.233e-01   0.000e+00
  -7.233e-01   6.510e-01   0.000e+00
  -6.510e-01   6.510e-01   0.000e+00
  -7.233e-01   7.233e-01   0.000e+00
  -6.510e-01   6.510e-01   0.000e+00
  -5.787e-01   6.510e-01   0.000e+00
  -6.510e-01   7.233e-01   0.000e+00
  -5.787e-01   6.510e-01   0.000e+00
  -5.063e-01   6.510e-01   0.000e+00
  -5.787e-01   7.233e-01   0.000e+00
  -5.063e-01   6.510e-01   0.000e+00
  -4.340e-01   6.510e-01   0.000e+00
  -5.063e-01   7.233e-01   0.000e+00
  -4.340e-01   6.510e-01   0.000e+00
  -3.617e-01   6.510e-01   0.000e+00
  -4.340e-01   7.233e-01   0.000e+00
  -3.617e-01   6.510e-01   0.000e+00
  -2.893e-01   6.510e-01   0.000e+00
  -3.617e-01   7.233e-01   0.000e+00
  -2.893e-01   6.510e-01   0.000e+00
  -2.170e-01   6.510e-01   0.000e+00
  -2.893e-01   7.233e-01   0.000e+00
  -2.170e-01   6.510e-01   0.000e+00
  -1.447e-01   6.510e-01   0.000e+00
  -2.170e-01   7.233e-01   0.000e+00
  -1.447e-01   6.510e-01   0.000e+00
  -7.233e-02   6.510e-01   0.000e+00
  -1.447e-01   7.233e-01   0.000e+00
  -7.115e-02   6.510e-01   0.000e+00
  -5.861e-02   6.734e-01   0.000e+00
  -3.617e-02   6.510e-01   0.000e+00
  -7.233e-02   6.510e-01   0.000e+00
  -7.115e-02   6.510e-01   0.000e+00
  -5.861e-02   6.734e-01   0.000e+00
  -7.233e-02   6.872e-01   0.000e+00
   0.000e+00   6.510e-01   0.000e+00
  -3.617e-02   6.872e-01   0.000e+00
  -3.617e-02   6.510e-01   0.000e+00
  -3.617e-02   6.872e-01   0.000e+00
  -5.861e-02   6.734e-01   0.000e+00
  -4.919e-02   6.872e-01   0.000e+00
  -3.617e-02   6.510e-01   0.000e+00
  -5.861e-02   6.734e-01   0.000e+00
  -4.919e-02   6.872e-01   0.000e+00
  -7.233e-02   6.872e-01   0.000e+00
  -4.919e-02   6.872e-01   0.000e+00
  -4.372e-02   6.947e-01   0.000e+00
  -3.617e-02   6.872e-01   0.000e+00
  -7.233e-02   7.233e-01   0.000e+00
  -7.233e-02   6.872e-01   0.000e+00
  -4.919e-02   6.872e-01   0.000e+00
  -4.372e-02   6.947e-01   0.000e+00
   0.000e+00   6.510e-01   0.000e+00
   7.233e-02   6.510e-01   0.000e+00
   0.000e+00   7.233e-01   0.000e+00
   7.233e-02   6.510e-01   0.000e+00
   1.447e-01   6.510e-01   0.000e+00
   7.233e-02   7.233e-01   0.000e+00
   1.447e-01   6.510e-01   0.000e+00
   1.605e-01   6.510e-01   0.000e+00
   1.447e-01   6.782e-01   0.000e+00
   1.605e-01   6.510e-01   0.000e+00
   1.447e-01   6.782e-01   0.000e+00
   1.808e-01   6.510e-01   0.000e+00
   1.447e-01   6.872e-01   0.000e+00
   2.170e-01   6.510e-01   0.000e+00
   1.808e-01   6.872e-01   0.000e+00
   1.808e-01   6.510e-01   0.000e+00
   1.808e-01   6.872e-01   0.000e+00
   1.447e-01   6.872e-01   0.000e+00
   1.808e-01   6.510e-01   0.000e+00
   1.447e-01   7.233e-01   0.000e+00
   1.447e-01   6.872e-01   0.000e+00
   1.808e-01   6.872e-01   0.000e+00
   2.170e-01   6.510e-01   0.000e+00
   2.893e-01   6.510e-01   0.000e+00
   2.170e-01   7.233e-01   0.000e+00
   2.893e-01   6.510e-01   0.000e+00
   3.617e-01   6.510e-01   0.000e+00
   2.893e-01   7.233e-01   0.000e+00
   3.617e-01   6.510e-01   0.000e+00
   4.340e-01   6.510e-01   0.000e+00
   3.617e-01   7.233e-01   0.000e+00
   4.340e-01   6.510e-01   0.000e+00
   5.063e-01   6.510e-01   0.000e+00
   4.340e-01   7.233e-01   0.000e+00
   5.063e-01   6.510e-01   0.000e+00
   5.787e-01   6.510e-01   0.000e+00
   5.063e-01   7.233e-01   0.000e+00
   5.787e-01   6.510e-01   0.000e+00
   6.510e-01   6.510e-01   0.000e+00
   5.787e-01   7.233e-01   0.000e+00
   6.510e-01   6.510e-01   0.000e+00
   7.233e-01   6.510e-01   0.000e+00
   6.510e-01   7.233e-01   0.000e+00
   7.233e-01   6.510e-01   0.000e+00
   7.957e-01   6.510e-01   0.000e+00
   7.233e-01   7.233e-01   0.000e+00
   7.957e-01   6.510e-01   0.000e+00
   8.680e-01   6.510e-01   0.000e+00
   7.957e-01   7.233e-01   0.000e+00
   8.680e-01   6.510e-01   0.000e+00
   9.403e-01   6.510e-01   0.000e+00
   8.680e-01   7.233e-01   0.000e+00
   9.403e-01   6.510e-01   0.000e+00
   1.013e+00   6.510e-01   0.000e+00
   9.403e-01   7.233e-01   0.000e+00
   1.013e+00   6.510e-01   0.000e+00
   1.085e+00   6.510e-01   0.000e+00
   1.013e+00   7.233e-01   0.000e+00
  -1.085e+00   7.233e-01   0.000e+00
  -1.013e+00   7.233e-01   0.000e+00
  -1.085e+00   7.957e-01   0.000e+00
  -1.013e+00   7.233e-01   0.000e+00
  -9.403e-01   7.233e-01   0.000e+00
  -1.013e+00   7.957e-01   0.000e+00
  -9.403e-01   7.233e-01   0.000e+00
  -8.680e-01   7.233e-01   0.000e+00
  -9.403e-01   7.957e-01   0.000e+00
  -8.680e-01   7.233e-01   0.000e+00
  -7.957e-01   7.233e-01   0.000e+00
  -8.680e-01   7.957e-01   0.000e+00
  -7.957e-01   7.233e-01   0.000e+00
  -7.233e-01   7.233e-01   0.000e+00
  -7.957e-01   7.957e-01   0.000e+00
  -7.233e-01   7.233e-01   0.000e+00
  -6.510e-01   7.233e-01   0.000e+00
  -7.233e-01   7.957e-01   0.000e+00
  -6.510e-01   7.233e-01   0.000e+00
  -5.787e-01   7.233e-01   0.000e+00
  -6.510e-01   7.957e-01   0.000e+00
  -5.787e-01   7.233e-01   0.000e+00
  -5.063e-01   7.233e-01   0.000e+00
  -5.787e-01   7.957e-01   0.000e+00
  -5.063e-01   7.233e-01   0.000e+00
  -4.340e-01   7.233e-01   0.000e+00
  -5.063e-01   7.957e-01   0.000e+00
  -4.340e-01   7.233e-01   0.000e+00
  -3.617e-01   7.233e-01   0.000e+00
  -4.340e-01   7.957e-01   0.000e+00
  -3.617e-01   7.233e-01   0.000e+00
  -2.893e-01   7.233e-01   0.000e+00
  -3.617e-01   7.957e-01   0.000e+00
  -2.893e-01   7.233e-01   0.000e+00
  -2.170e-01   7.233e-01   0.000e+00
  -2.893e-01   7.957e-01   0.000e+00
  -2.170e-01   7.233e-01   0.000e+00
  -1.447e-01   7.233e-01   0.000e+00
  -2.170e-01   7.957e-01   0.000e+00
  -1.447e-01   7.233e-01   0.000e+00
  -7.233e-02   7.233e-01   0.000e+00
  -1.447e-01   7.957e-01   0.000e+00
  -7.233e-02   7.233e-01   0.000e+00
  -3.617e-02   7.233e-01   0.000e+00
  -7.233e-02   7.595e-01   0.000e+00
   0.000e+00   7.233e-01   0.000e+00
  -5.953e-03   7.293e-01   0.000e+00
  -1.351e-02   7.233e-01   0.000e+00
  -5.953e-03   7.293e-01   0.000e+00
  -1.351e-02   7.233e-01   0.000e+00
  -3.617e-02   7.595e-01   0.000e+00
  -3.617e-02   7.233e-01   0.000e+00
  -3.617e-02   7.595e-01   0.000e+00
  -7.233e-02   7.595e-01   0.000e+00
  -3.617e-02   7.233e-01   0.000e+00
  -7.233e-02   7.957e-01   0.000e+00
  -7.233e-02   7.595e-01   0.000e+00
  -3.617e-02   7.595e-01   0.000e+00
   0.000e+00   7.233e-01   0.000e+00
   3.617e-02   7.233e-01   0.000e+00
   0.000e+00   7.326e-01   0.000e+00
   1.938e-02   7.401e-01   0.000e+00
   0.000e+00   7.326e-01   0.000e+00
   1.938e-02   7.401e-01   0.000e+00
   0.000e+00   7.595e-01   0.000e+00
   7.233e-02   7.233e-01   0.000e+00
   5.380e-02   7.419e-01   0.000e+00
   3.617e-02   7.443e-01   0.000e+00
   3.617e-02   7.233e-01   0.000e+00
   5.380e-02   7.419e-01   0.000e+00
   3.617e-02   7.443e-01   0.000e+00
   3.617e-02   7.595e-01   0.000e+00
   1.938e-02   7.401e-01   0.000e+00
   3.617e-02   7.443e-01   0.000e+00
   3.617e-02   7.233e-01   0.000e+00
   3.617e-02   7.595e-01   0.000e+00
   0.000e+00   7.595e-01   0.000e+00
   1.938e-02   7.401e-01   0.000e+00
   3.617e-02   7.443e-01   0.000e+00
   0.000e+00   7.957e-01   0.000e+00
   0.000e+00   7.595e-01   0.000e+00
   3.617e-02   7.595e-01   0.000e+00
   7.233e-02   7.233e-01   0.000e+00
   1.034e-01   7.233e-01   0.000e+00
   7.233e-02   7.401e-01   0.000e+00
   1.034e-01   7.233e-01   0.000e+00
   7.233e-02   7.401e-01   0.000e+00
   1.085e-01   7.233e-01   0.000e+00
   7.233e-02   7.595e-01   0.000e+00
   1.447e-01   7.233e-01   0.000e+00
   1.085e-01   7.595e-01   0.000e+00
   1.085e-01   7.233e-01   0.000e+00
   1.085e-01   7.595e-01   0.000e+00
   7.233e-02   7.595e-01   0.000e+00
   1.085e-01   7.233e-01   0.000e+00
   7.233e-02   7.957e-01   0.000e+00
   7.233e-02   7.595e-01   0.000e+00
   1.085e-01   7.595e-01   0.000e+00
   1.447e-01   7.233e-01   0.000e+00
   2.170e-01   7.233e-01   0.000e+00
   1.447e-01   7.957e-01   0.000e+00
   2.170e-01   7.233e-01   0.000e+00
   2.893e-01   7.233e-01   0.000e+00
   2.170e-01   7.957e-01   0.000e+00
   2.893e-01   7.233e-01   0.000e+00
   3.617e-01   7.233e-01   0.000e+00
   2.893e-01   7.957e-01   0.000e+00
   3.617e-01   7.233e-01   0.000e+00
   4.340e-01   7.233e-01   0.000e+00
   3.617e-01   7.957e-01   0.000e+00
   4.340e-01   7.233e-01   0.000e+00
   5.063e-01   7.233e-01   0.000e+00
   4.340e-01   7.957e-01   0.000e+00
   5.063e-01   7.233e-01   0.000e+00
   5.787e-01   7.233e-01   0.000e+00
   5.063e-01   7.957e-01   0.000e+00
   5.787e-01   7.233e-01   0.000e+00
   6.510e-01   7.233e-01   0.000e+00
   5.787e-01   7.957e-01   0.000e+00
   6.510e-01   7.233e-01   0.000e+00
   7.233e-01   7.233e-01   0.000e+00
   6.510e-01   7.957e-01   0.000e+00
   7.233e-01   7.233e-01   0.000e+00
   7.957e-01   7.233e-01   0.000e+00
   7.233e-01   7.957e-01   0.000e+00
   7.957e-01   7.233e-01   0.000e+00
   8.680e-01   7.233e-01   0.000e+00
   7.957e-01   7.957e-01   0.000e+00
   8.680e-01   7.233e-01   0.000e+00
   9.403e-01   7.233e-01   0.000e+00
   8.680e-01   7.957e-01   0.000e+00
   9.403e-01   7.233e-01   0.000e+00
   1.013e+00   7.233e-01   0.000e+00
   9.403e-01   7.957e-01   0.000e+00
   1.013e+00   7.233e-01   0.000e+00
   1.085e+00   7.233e-01   0.000e+00
   1.013e+00   7.957e-01   0.000e+00
  -1.085e+00   7.957e-01   0.000e+00
  -1.013e+00   7.957e-01   0.000e+00
  -1.085e+00   8.680e-01   0.000e+00
  -1.013e+00   7.957e-01   0.000e+00
  -9.403e-01   7.957e-01   0.000e+00
  -1.013e+00   8.680e-01   0.000e+00
  -9.403e-01   7.957e-01   0.000e+00
  -8.680e-01   7.957e-01   0.000e+00
  -9.403e-01   8.680e-01   0.000e+00
  -8.680e-01   7.957e-01   0.000e+00
  -7.957e-01   7.957e-01   0.000e+00
  -8.680e-01   8.680e-01   0.000e+00
  -7.957e-01   7.957e-01   0.000e+00
  -7.233e-01   7.957e-01   0.000e+00
  -7.957e-01   8.680e-01   0.000e+00
  -7.233e-01   7.957e-01   0.000e+00
  -6.510e-01   7.957e-01   0.000e+00
  -7.233e-01   8.680e-01   0.000e+00
  -6.510e-01   7.957e-01   0.000e+00
  -5.787e-01   7.957e-01   0.000e+00
  -6.510e-01   8.680e-01   0.000e+00
  -5.787e-01   7.957e-01   0.000e+00
  -5.063e-01   7.957e-01   0.000e+00
  -5.787e-01   8.680e-01   0.000e+00
  -5.063e-01   7.957e-01   0.000e+00
  -4.340e-01   7.957e-01   0.000e+00
  -5.063e-01   8.680e-01   0.000e+00
  -4.340e-01   7.957e-01   0.000e+00
  -3.617e-01   7.957e-01   0.000e+00
  -4.340e-01   8.680e-01   0.000e+00
  -3.617e-01   7.957e-01   0.000e+00
  -2.893e-01   7.957e-01   0.000e+00
  -3.617e-01   8.680e-01   0.000e+00
  -2.893e-01   7.957e-01   0.000e+00
  -2.170e-01   7.957e-01   0.000e+00
  -2.893e-01   8.680e-01   0.000e+00
  -2.170e-01   7.957e-01   0.000e+00
  -1.447e-01   7.957e-01   0.000e+00
  -2.170e-01   8.680e-01   0.000e+00
  -1.447e-01   7.957e-01   0.000e+00
  -7.233e-02   7.957e-01   0.000e+00
  -1.447e-01   8.680e-01   0.000e+00
  -7.233e-02   7.957e-01   0.000e+00
   0.000e+00   7.957e-01   0.000e+00
  -7.233e-02   8.680e-01   0.000e+00
   0.000e+00   7.957e-01   0.000e+00
   7.233e-02   7.957e-01   0.000e+00
   0.000e+00   8.680e-01   0.000e+00
   7.233e-02   7.957e-01   0.000e+00
   1.447e-01   7.957e-01   0.000e+00
   7.233e-02   8.680e-01   0.000e+00
   1.447e-01   7.957e-01   0.000e+00
   2.170e-01   7.957e-01   0.000e+00
   1.447e-01   8.680e-01   0.000e+00
   2.170e-01   7.957e-01   0.000e+00
   2.893e-01   7.957e-01   0.000e+00
   2.170e-01   8.680e-01   0.000e+00
   2.893e-01   7.957e-01   0.000e+00
   3.617e-01   7.957e-01   0.000e+00
   2.893e-01   8.680e-01   0.000e+00
   3.617e-01   7.957e-01   0.000e+00
   4.340e-01   7.957e-01   0.000e+00
   3.617e-01   8.680e-01   0.000e+00
   4.340e-01   7.957e-01   0.000e+00
   5.063e-01   7.957e-01   0.000e+00
   4.340e-01   8.680e-01   0.000e+00
   5.063e-01   7.957e-01   0.000e+00
   5.787e-01   7.957e-01   0.000e+00
   5.063e-01   8.680e-01   0.000e+00
   5.787e-01   7.957e-01   0.000e+00
   6.510e-01   7.957e-01   0.000e+00
   5.787e-01   8.680e-01   0.000e+00
   6.510e-01   7.957e-01   0.000e+00
   7.233e-01   7.957e-01   0.000e+00
   6.510e-01   8.680e-01   0.000e+00
   7.233e-01   7.957e-01   0.000e+00
   7.957e-01   7.957e-01   0.000e+00
   7.233e-01   8.680e-01   0.000e+00
   7.957e-01   7.957e-01   0.000e+00
   8.680e-01   7.957e-01   0.000e+00
   7.957e-01   8.680e-01   0.000e+00
   8.680e-01   7.957e-01   0.000e+00
   9.403e-01   7.957e-01   0.000e+00
   8.680e-01   8.680e-01   0.000e+00
   9.403e-01   7.957e-01   0.000e+00
   1.013e+00   7.957e-01   0.000e+00
   9.403e-01   8.680e-01   0.000e+00
   1.013e+00   7.957e-01   0.000e+00
   1.085e+00   7.957e-01   0.000e+00
   1.013e+00   8.680e-01   0.000e+00
  -1.085e+00   8.680e-01   0.000e+00
  -1.013e+00   8.680e-01   0.000e+00
  -1.085e+00   9.403e-01   0.000e+00
  -1.013e+00   8.680e-01   0.000e+00
  -9.403e-01   8.680e-01   0.000e+00
  -1.013e+00   9.403e-01   0.000e+00
  -9.403e-01   8.680e-01   0.000e+00
  -8.680e-01   8.680e-01   0.000e+00
  -9.403e-01   9.403e-01   0.000e+00
  -8.680e-01   8.680e-01   0.000e+00
  -7.957e-01   8.680e-01   0.000e+00
  -8.680e-01   9.403e-01   0.000e+00
  -7.957e-01   8.680e-01   0.000e+00
  -7.233e-01   8.680e-01   0.000e+00
  -7.957e-01   9.403e-01   0.000e+00
  -7.233e-01   8.680e-01   0.000e+00
  -6.510e-01   8.680e-01   0.000e+00
  -7.233e-01   9.403e-01   0.000e+00
  -6.510e-01   8.680e-01   0.000e+00
  -5.787e-01   8.680e-01   0.000e+00
  -6.510e-01   9.403e-01   0.000e+00
  -5.787e-01   8.680e-01   0.000e+00
  -5.063e-01   8.680e-01   0.000e+00
  -5.787e-01   9.403e-01   0.000e+00
  -5.063e-01   8.680e-01   0.000e+00
  -4.340e-01   8.680e-01   0.000e+00
  -5.063e-01   9.403e-01   0.000e+00
  -4.340e-01   8.680e-01   0.000e+00
  -3.617e-01   8.680e-01   0.000e+00
  -4.340e-01   9.403e-01   0.000e+00
  -3.617e-01   8.680e-01   0.000e+00
  -2.893e-01   8.680e-01   0.000e+00
  -3.617e-01   9.403e-01   0.000e+00
  -2.893e-01   8.680e-01   0.000e+00
  -2.170e-01   8.680e-01   0.000e+00
  -2.893e-01   9.403e-01   0.000e+00
  -2.170e-01   8.680e-01   0.000e+00
  -1.447e-01   8.680e-01   0.000e+00
  -2.170e-01   9.403e-01   0.000e+00
  -1.447e-01   8.680e-01   0.000e+00
  -7.233e-02   8.680e-01   0.000e+00
  -1.447e-01   9.403e-01   0.000e+00
  -7.233e-02   8.680e-01   0.000e+00
   0.000e+00   8.680e-01   0.000e+00
  -7.233e-02   9.403e-01   0.000e+00
   0.000e+00   8.680e-01   0.000e+00
   7.233e-02   8.680e-01   0.000e+00
   0.000e+00   9.403e-01   0.000e+00
   7.233e-02   8.680e-01   0.000e+00
   1.447e-01   8.680e-01   0.000e+00
   7.233e-02   9.403e-01   0.000e+00
   1.447e-01   8.680e-01   0.000e+00
   2.170e-01   8.680e-01   0.000e+00
   1.447e-01   9.403e-01   0.000e+00
   2.170e-01   8.680e-01   0.000e+00
   2.893e-01   8.680e-01   0.000e+00
   2.170e-01   9.403e-01   0.000e+00
   2.893e-01   8.680e-01   0.000e+00
   3.617e-01   8.680e-01   0.000e+00
   2.893e-01   9.403e-01   0.000e+00
   3.617e-01   8.680e-01   0.000e+00
   4.340e-01   8.680e-01   0.000e+00
   3.617e-01   9.403e-01   0.000e+00
   4.340e-01   8.680e-01   0.000e+00
   5.063e-01   8.680e-01   0.000e+00
   4.340e-01   9.403e-01   0.000e+00
   5.063e-01   8.680e-01   0.000e+00
   5.787e-01   8.680e-01   0.000e+00
   5.063e-01   9.403e-01   0.000e+00
   5.787e-01   8.680e-01   0.000e+00
   6.510e-01   8.680e-01   0.000e+00
   5.787e-01   9.403e-01   0.000e+00
   6.510e-01   8.680e-01   0.000e+00
   7.233e-01   8.680e-01   0.000e+00
   6.510e-01   9.403e-01   0.000e+00
   7.233e-01   8.680e-01   0.000e+00
   7.957e-01   8.680e-01   0.000e+00
   7.233e-01   9.403e-01   0.000e+00
   7.957e-01   8.680e-01   0.000e+00
   8.680e-01   8.680e-01   0.000e+00
   7.957e-01   9.403e-01   0.000e+00
   8.680e-01   8.680e-01   0.000e+00
   9.403e-01   8.680e-01   0.000e+00
   8.680e-01   9.403e-01   0.000e+00
   9.403e-01   8.680e-01   0.000e+00
   1.013e+00   8.680e-01   0.000e+00
   9.403e-01   9.403e-01   0.000e+00
   1.013e+00   8.680e-01   0.000e+00
   1.085e+00   8.680e-01   0.000e+00
   1.013e+00   9.403e-01   0.000e+00
  -1.085e+00   9.403e-01   0.000e+00
  -1.013e+00   9.403e-01   0.000e+00
  -1.085e+00   1.013e+00   0.000e+00
  -1.013e+00   9.403e-01   0.000e+00
  -9.403e-01   9.403e-01   0.000e+00
  -1.013e+00   1.013e+00   0.000e+00
  -9.403e-01   9.403e-01   0.000e+00
  -8.680e-01   9.403e-01   0.000e+00
  -9.403e-01   1.013e+00   0.000e+00
  -8.680e-01   9.403e-01   0.000e+00
  -7.957e-01   9.403e-01   0.000e+00
  -8.680e-01   1.013e+00   0.000e+00
  -7.957e-01   9.403e-01   0.000e+00
  -7.233e-01   9.403e-01   0.000e+00
  -7.957e-01   1.013e+00   0.000e+00
  -7.233e-01   9.403e-01   0.000e+00
  -6.510e-01   9.403e-01   0.000e+00
  -7.233e-01   1.013e+00   0.000e+00
  -6.510e-01   9.403e-01   0.000e+00
  -5.787e-01   9.403e-01   0.000e+00
  -6.510e-01   1.013e+00   0.000e+00
  -5.787e-01   9.403e-01   0.000e+00
  -5.063e-01   9.403e-01   0.000e+00
  -5.787e-01   1.013e+00   0.000e+00
  -5.063e-01   9.403e-01   0.000e+00
  -4.340e-01   9.403e-01   0.000e+00
  -5.063e-01   1.013e+00   0.000e+00
  -4.340e-01   9.403e-01   0.000e+00
  -3.617e-01   9.403e-01   0.000e+00
  -4.340e-01   1.013e+00   0.000e+00
  -3.617e-01   9.403e-01   0.000e+00
  -2.893e-01   9.403e-01   0.000e+00
  -3.617e-01   1.013e+00   0.000e+00
  -2.893e-01   9.403e-01   0.000e+00
  -2.170e-01   9.403e-01   0.000e+00
  -2.893e-01   1.013e+00   0.000e+00
  -2.170e-01   9.403e-01   0.000e+00
  -1.447e-01   9.403e-01   0.000e+00
  -2.170e-01   1.013e+00   0.000e+00
  -1.447e-01   9.403e-01   0.000e+00
  -7.233e-02   9.403e-01   0.000e+00
  -1.447e-01   1.013e+00   0.000e+00
  -7.233e-02   9.403e-01   0.000e+00
   0.000e+00   9.403e-01   0.000e+00
  -7.233e-02   1.013e+00   0.000e+00
   0.000e+00   9.403e-01   0.000e+00
   7.233e-02   9.403e-01   0.000e+00
   0.000e+00   1.013e+00   0.000e+00
   7.233e-02   9.403e-01   0.000e+00
   1.447e-01   9.403e-01   0.000e+00
   7.233e-02   1.013e+00   0.000e+00
   1.447e-01   9.403e-01   0.000e+00
   2.170e-01   9.403e-01   0.000e+00
   1.447e-01   1.013e+00   0.000e+00
   2.170e-01   9.403e-01   0.000e+00
   2.893e-01   9.403e-01   0.000e+00
   2.170e-01   1.013e+00   0.000e+00
   2.893e-01   9.403e-01   0.000e+00
   3.617e-01   9.403e-01   0.000e+00
   2.893e-01   1.013e+00   0.000e+00
   3.617e-01   9.403e-01   0.000e+00
   4.340e-01   9.403e-01   0.000e+00
   3.617e-01   1.013e+00   0.000e+00
   4.340e-01   9.403e-01   0.000e+00
   5.063e-01   9.403e-01   0.000e+00
   4.340e-01   1.013e+00   0.000e+00
   5.063e-01   9.403e-01   0.000e+00
   5.787e-01   9.403e-01   0.000e+00
   5.063e-01   1.013e+00   0.000e+00
   5.787e-01   9.403e-01   0.000e+00
   6.510e-01   9.403e-01   0.000e+00
   5.787e-01   1.013e+00   0.000e+00
   6.510e-01   9.403e-01   0.000e+00
   7.233e-01   9.403e-01   0.000e+00
   6.510e-01   1.013e+00   0.000e+00
   7.233e-01   9.403e-01   0.000e+00
   7.957e-01   9.403e-01   0.000e+00
   7.233e-01   1.013e+00   0.000e+00
   7.957e-01   9.403e-01   0.000e+00
   8.680e-01   9.403e-01   0.000e+00
   7.957e-01   1.013e+00   0.000e+00
   8.680e-01   9.403e-01   0.000e+00
   9.403e-01   9.403e-01   0.000e+00
   8.680e-01   1.013e+00   0.000e+00
   9.403e-01   9.403e-01   0.000e+00
   1.013e+00   9.403e-01   0.000e+00
   9.403e-01   1.013e+00   0.000e+00
   1.013e+00   9.403e-01   0.000e+00
   1.085e+00   9.403e-01   0.000e+00
   1.013e+00   1.013e+00   0.000e+00
  -1.085e+00   1.013e+00   0.000e+00
  -1.013e+00   1.013e+00   0.000e+00
  -1.085e+00   1.085e+00   0.000e+00
  -1.013e+00   1.013e+00   0.000e+00
  -9.403e-01   1.013e+00   0.000e+00
  -1.013e+00   1.085e+00   0.000e+00
  -9.403e-01   1.013e+00   0.000e+00
  -8.680e-01   1.013e+00   0.000e+00
  -9.403e-01   1.085e+00   0.000e+00
  -8.680e-01   1.013e+00   0.000e+00
  -7.957e-01   1.013e+00   0.000e+00
  -8.680e-01   1.085e+00   0.000e+00
  -7.957e-01   1.013e+00   0.000e+00
  -7.233e-01   1.013e+00   0.000e+00
  -7.957e-01   1.085e+00   0.000e+00
  -7.233e-01   1.013e+00   0.000e+00
  -6.510e-01   1.013e+00   0.000e+00
  -7.233e-01   1.085e+00   0.000e+00
  -6.510e-01   1.013e+00   0.000e+00
  -5.787e-01   1.013e+00   0.000e+00
  -6.510e-01   1.085e+00   0.000e+00
  -5.787e-01   1.013e+00   0.000e+00
  -5.063e-01   1.013e+00   0.000e+00
  -5.787e-01   1.085e+00   0.000e+00
  -5.063e-01   1.013e+00   0.000e+00
  -4.340e-01   1.013e+00   0.000e+00
  -5.063e-01   1.085e+00   0.000e+00
  -4.340e-01   1.013e+00   0.000e+00
  -3.617e-01   1.013e+00   0.000e+00
  -4.340e-01   1.085e+00   0.000e+00
  -3.617e-01   1.013e+00   0.000e+00
  -2.893e-01   1.013e+00   0.000e+00
  -3.617e-01   1.085e+00   0.000e+00
  -2.893e-01   1.013e+00   0.000e+00
  -2.170e-01   1.013e+00   0.000e+00
  -2.893e-01   1.085e+00   0.000e+00
  -2.170e-01   1.013e+00   0.000e+00
  -1.447e-01   1.013e+00   0.000e+00
  -2.170e-01   1.085e+00   0.000e+00
  -1.447e-01   1.013e+00   0.000e+00
  -7.233e-02   1.013e+00   0.000e+00
  -1.447e-01   1.085e+00   0.000e+00
  -7.233e-02   1.013e+00   0.000e+00
   0.000e+00   1.013e+00   0.000e+00
  -7.233e-02   1.085e+00   0.000e+00
   0.000e+00   1.013e+00   0.000e+00
   7.233e-02   1.013e+00   0.000e+00
   0.000e+00   1.085e+00   0.000e+00
   7.233e-02   1.013e+00   0.000e+00
   1.447e-01   1.013e+00   0.000e+00
   7.233e-02   1.085e+00   0.000e+00
   1.447e-01   1.013e+00   0.000e+00
   2.170e-01   1.013e+00   0.000e+00
   1.447e-01   1.085e+00   0.000e+00
   2.170e-01   1.013e+00   0.000e+00
   2.893e-01   1.013e+00   0.000e+00
   2.170e-01   1.085e+00   0.000e+00
   2.893e-01   1.013e+00   0.000e+00
   3.617e-01   1.013e+00   0.000e+00
   2.893e-01   1.085e+00   0.000e+00
   3.617e-01   1.013e+00   0.000e+00
   4.340e-01   1.013e+00   0.000e+00
   3.617e-01   1.085e+00   0.000e+00
   4.340e-01   1.013e+00   0.000e+00
   5.063e-01   1.013e+00   0.000e+00
   4.340e-01   1.085e+00   0.000e+00
   5.063e-01   1.013e+00   0.000e+00
   5.787e-01   1.013e+00   0.000e+00
   5.063e-01   1.085e+00   0.000e+00
   5.787e-01   1.013e+00   0.000e+00
   6.510e-01   1.013e+00   0.000e+00
   5.787e-01   1.085e+00   0.000e+00
   6.510e-01   1.013e+00   0.000e+00
   7.233e-01   1.013e+00   0.000e+00
   6.510e-01   1.085e+00   0.000e+00
   7.233e-01   1.013e+00   0.000e+00
   7.957e-01   1.013e+00   0.000e+00
   7.233e-01   1.085e+00   0.000e+00
   7.957e-01   1.013e+00   0.000e+00
   8.680e-01   1.013e+00   0.000e+00
   7.957e-01   1.085e+00   0.000e+00
   8.680e-01   1.013e+00   0.000e+00
   9.403e-01   1.013e+00   0.000e+00
   8.680e-01   1.085e+00   0.000e+00
   9.403e-01   1.013e+00   0.000e+00
   1.013e+00   1.013e+00   0.000e+00
   9.403e-01   1.085e+00   0.000e+00
   1.013e+00   1.013e+00   0.000e+00
   1.085e+00   1.013e+00   0.000e+00
   1.013e+00   1.085e+00   0.000e+00
  -1.013e+00  -1.085e+00   0.000e+00
  -1.013e+00  -1.013e+00   0.000e+00
  -1.085e+00  -1.013e+00   0.000e+00
  -9.403e-01  -1.085e+00   0.000e+00
  -9.403e-01  -1.013e+00   0.000e+00
  -1.013e+00  -1.013e+00   0.000e+00
  -8.680e-01  -1.085e+00   0.000e+00
  -8.680e-01  -1.013e+00   0.000e+00
  -9.403e-01  -1.013e+00   0.000e+00
  -7.957e-01  -1.085e+00   0.000e+00
  -7.957e-01  -1.013e+00   0.000e+00
  -8.680e-01  -1.013e+00   0.000e+00
  -7.233e-01  -1.085e+00   0.000e+00
  -7.233e-01  -1.013e+00   0.000e+00
  -7.957e-01  -1.013e+00   0.000e+00
  -6.510e-01  -1.085e+00   0.000e+00
  -6.510e-01  -1.013e+00   0.000e+00
  -7.233e-01  -1.013e+00   0.000e+00
  -5.787e-01  -1.085e+00   0.000e+00
  -5.787e-01  -1.013e+00   0.000e+00
  -6.510e-01  -1.013e+00   0.000e+00
  -5.063e-01  -1.085e+00   0.000e+00
  -5.063e-01  -1.013e+00   0.000e+00
  -5.787e-01  -1.013e+00   0.000e+00
  -4.340e-01  -1.085e+00   0.000e+00
  -4.340e-01  -1.013e+00   0.000e+00
  -5.063e-01  -1.013e+00   0.000e+00
  -3.617e-01  -1.085e+00   0.000e+00
  -3.617e-01  -1.013e+00   0.000e+00
  -4.340e-01  -1.013e+00   0.000e+00
  -2.893e-01  -1.085e+00   0.000e+00
  -2.893e-01  -1.013e+00   0.000e+00
  -3.617e-01  -1.013e+00   0.000e+00
  -2.170e-01  -1.085e+00   0.000e+00
  -2.170e-01  -1.013e+00   0.000e+00
  -2.893e-01  -1.013e+00   0.000e+00
  -1.447e-01  -1.085e+00   0.000e+00
  -1.447e-01  -1.013e+00   0.000e+00
  -2.170e-01  -1.013e+00   0.000e+00
  -7.233e-02  -1.085e+00   0.000e+00
  -7.233e-02  -1.013e+00   0.000e+00
  -1.447e-01  -1.013e+00   0.000e+00
   0.000e+00  -1.085e+00   0.000e+00
   0.000e+00  -1.013e+00   0.000e+00
  -7.233e-02  -1.013e+00   0.000e+00
   7.233e-02  -1.085e+00   0.000e+00
   7.233e-02  -1.013e+00   0.000e+00
   0.000e+00  -1.013e+00   0.000e+00
   1.447e-01  -1.085e+00   0.000e+00
   1.447e-01  -1.013e+00   0.000e+00
   7.233e-02  -1.013e+00   0.000e+00
   2.170e-01  -1.085e+00   0.000e+00
   2.170e-01  -1.013e+00   0.000e+00
   1.447e-01  -1.013e+00   0.000e+00
   2.893e-01  -1.085e+00   0.000e+00
   2.893e-01  -1.013e+00   0.000e+00
   2.170e-01  -1.013e+00   0.000e+00
   3.617e-01  -1.085e+00   0.000e+00
   3.617e-01  -1.013e+00   0.000e+00
   2.893e-01  -1.013e+00   0.000e+00
   4.340e-01  -1.085e+00   0.000e+00
   4.340e-01  -1.013e+00   0.000e+00
   3.617e-01  -1.013e+00   0.000e+00
   5.063e-01  -1.085e+00   0.000e+00
   5.063e-01  -1.013e+00   0.000e+00
   4.340e-01  -1.013e+00   0.000e+00
   5.787e-01  -1.085e+00   0.000e+00
   5.787e-01  -1.013e+00   0.000e+00
   5.063e-01  -1.013e+00   0.000e+00
   6.510e-01  -1.085e+00   0.000e+00
   6.510e-01  -1.013e+00   0.000e+00
   5.787e-01  -1.013e+00   0.000e+00
   7.233e-01  -1.085e+00   0.000e+00
   7.233e-01  -1.013e+00   0.000e+00
   6.510e-01  -1.013e+00   0.000e+00
   7.957e-01  -1.085e+00   0.000e+00
   7.957e-01  -1.013e+00   0.000e+00
   7.233e-01  -1.013e+00   0.000e+00
   8.680e-01  -1.085e+00   0.000e+00
   8.680e-01  -1.013e+00   0.000e+00
   7.957e-01  -1.013e+00   0.000e+00
   9.403e-01  -1.085e+00   0.000e+00
   9.403e-01  -1.013e+00   0.000e+00
   8.680e-01  -1.013e+00   0.000e+00
   1.013e+00  -1.085e+00   0.000e+00
   1.013e+00  -1.013e+00   0.000e+00
   9.403e-01  -1.013e+00   0.000e+00
   1.085e+00  -1.085e+00   0.000e+00
   1.085e+00  -1.013e+00   0.000e+00
   1.013e+00  -1.013e+00   0.000e+00
  -1.013e+00  -1.013e+00   0.000e+00
  -1.013e+00  -9.403e-01   0.000e+00
  -1.085e+00  -9.403e-01   0.000e+00
  -9.403e-01  -1.013e+00   0.000e+00
  -9.403e-01  -9.403e-01   0.000e+00
  -1.013e+00  -9.403e-01   0.000e+00
  -8.680e-01  -1.013e+00   0.000e+00
  -8.680e-01  -9.403e-01   0.000e+00
  -9.403e-01  -9.403e-01   0.000e+00
  -7.957e-01  -1.013e+00   0.000e+00
  -7.957e-01  -9.403e-01   0.000e+00
  -8.680e-01  -9.403e-01   0.000e+00
  -7.233e-01  -1.013e+00   0.000e+00
  -7.233e-01  -9.403e-01   0.000e+00
  -7.957e-01  -9.403e-01   0.000e+00
  -6.510e-01  -1.013e+00   0.000e+00
  -6.510e-01  -9.403e-01   0.000e+00
  -7.233e-01  -9.403e-01   0.000e+00
  -5.787e-01  -1.013e+00   0.000e+00
  -5.787e-01  -9.403e-01   0.000e+00
  -6.510e-01  -9.403e-01   0.000e+00
  -5.063e-01  -1.013e+00   0.000e+00
  -5.063e-01  -9.403e-01   0.000e+00
  -5.787e-01  -9.403e-01   0.000e+00
  -4.340e-01  -1.013e+00   0.000e+00
  -4.340e-01  -9.403e-01   0.000e+00
  -5.063e-01  -9.403e-01   0.000e+00
  -3.617e-01  -1.013e+00   0.000e+00
  -3.617e-01  -9.403e-01   0.000e+00
  -4.340e-01  -9.403e-01   0.000e+00
  -2.893e-01  -1.013e+00   0.000e+00
  -2.893e-01  -9.403e-01   0.000e+00
  -3.617e-01  -9.403e-01   0.000e+00
  -2.170e-01  -1.013e+00   0.000e+00
  -2.170e-01  -9.403e-01   0.000e+00
  -2.893e-01  -9.403e-01   0.000e+00
  -1.447e-01  -1.013e+00   0.000e+00
  -1.447e-01  -9.403e-01   0.000e+00
  -2.170e-01  -9.403e-01   0.000e+00
  -7.233e-02  -1.013e+00   0.000e+00
  -7.233e-02  -9.403e-01   0.000e+00
  -1.447e-01  -9.403e-01   0.000e+00
   0.000e+00  -1.013e+00   0.000e+00
   0.000e+00  -9.403e-01   0.000e+00
  -7.233e-02  -9.403e-01   0.000e+00
   7.233e-02  -1.013e+00   0.000e+00
   7.233e-02  -9.403e-01   0.000e+00
   0.000e+00  -9.403e-01   0.000e+00
   1.447e-01  -1.013e+00   0.000e+00
   1.447e-01  -9.403e-01   0.000e+00
   7.233e-02  -9.403e-01   0.000e+00
   2.170e-01  -1.013e+00   0.000e+00
   2.170e-01  -9.403e-01   0.000e+00
   1.447e-01  -9.403e-01   0.000e+00
   2.893e-01  -1.013e+00   0.000e+00
   2.893e-01  -9.403e-01   0.000e+00
   2.170e-01  -9.403e-01   0.000e+00
   3.617e-01  -1.013e+00   0.000e+00
   3.617e-01  -9.403e-01   0.000e+00
   2.893e-01  -9.403e-01   0.000e+00
   4.340e-01  -1.013e+00   0.000e+00
   4.340e-01  -9.403e-01   0.000e+00
   3.617e-01  -9.403e-01   0.000e+00
   5.063e-01  -1.013e+00   0.000e+00
   5.063e-01  -9.403e-01   0.000e+00
   4.340e-01  -9.403e-01   0.000e+00
   5.787e-01  -1.013e+00   0.000e+00
   5.787e-01  -9.403e-01   0.000e+00
   5.063e-01  -9.403e-01   0.000e+00
   6.510e-01  -1.013e+00   0.000e+00
   6.510e-01  -9.403e-01   0.000e+00
   5.787e-01  -9.403e-01   0.000e+00
   7.233e-01  -1.013e+00   0.000e+00
   7.233e-01  -9.403e-01   0.000e+00
   6.510e-01  -9.403e-01   0.000e+00
   7.957e-01  -1.013e+00   0.000e+00
   7.957e-01  -9.403e-01   0.000e+00
   7.233e-01  -9.403e-01   0.000e+00
   8.680e-01  -1.013e+00   0.000e+00
   8.680e-01  -9.403e-01   0.000e+00
   7.957e-01  -9.403e-01   0.000e+00
   9.403e-01  -1.013e+00   0.000e+00
   9.403e-01  -9.403e-01   0.000e+00
   8.680e-01  -9.403e-01   0.000e+00
   1.013e+00  -1.013e+00   0.000e+00
   1.013e+00  -9.403e-01   0.000e+00
   9.403e-01  -9.403e-01   0.000e+00
   1.085e+00  -1.013e+00   0.000e+00
   1.085e+00  -9.403e-01   0.000e+00
   1.013e+00  -9.403e-01   0.000e+00
  -1.013e+00  -9.403e-01   0.000e+00
  -1.013e+00  -8.680e-01   0.000e+00
  -1.085e+00  -8.680e-01   0.000e+00
  -9.403e-01  -9.403e-01   0.000e+00
  -9.403e-01  -8.680e-01   0.000e+00
  -1.013e+00  -8.680e-01   0.000e+00
  -8.680e-01  -9.403e-01   0.000e+00
  -8.680e-01  -8.680e-01   0.000e+00
  -9.403e-01  -8.680e-01   0.000e+00
  -7.957e-01  -9.403e-01   0.000e+00
  -7.957e-01  -8.680e-01   0.000e+00
  -8.680e-01  -8.680e-01   0.000e+00
  -7.233e-01  -9.403e-01   0.000e+00
  -7.233e-01  -8.680e-01   0.000e+00
  -7.957e-01  -8.680e-01   0.000e+00
  -6.510e-01  -9.403e-01   0.000e+00
  -6.510e-01  -8.680e-01   0.000e+00
  -7.233e-01  -8.680e-01   0.000e+00
  -5.787e-01  -9.403e-01   0.000e+00
  -5.787e-01  -8.680e-01   0.000e+00
  -6.510e-01  -8.680e-01   0.000e+00
  -5.063e-01  -9.403e-01   0.000e+00
  -5.063e-01  -8.680e-01   0.000e+00
  -5.787e-01  -8.680e-01   0.000e+00
  -4.340e-01  -9.403e-01   0.000e+00
  -4.340e-01  -8.680e-01   0.000e+00
  -5.063e-01  -8.680e-01   0.000e+00
  -3.617e-01  -9.403e-01   0.000e+00
  -3.617e-01  -8.680e-01   0.000e+00
  -4.340e-01  -8.680e-01   0.000e+00
  -2.893e-01  -9.403e-01   0.000e+00
  -2.893e-01  -8.680e-01   0.000e+00
  -3.617e-01  -8.680e-01   0.000e+00
  -2.170e-01  -9.403e-01   0.000e+00
  -2.170e-01  -8.680e-01   0.000e+00
  -2.893e-01  -8.680e-01   0.000e+00
  -1.447e-01  -9.403e-01   0.000e+00
  -1.447e-01  -8.680e-01   0.000e+00
  -2.170e-01  -8.680e-01   0.000e+00
  -7.233e-02  -9.403e-01   0.000e+00
  -7.233e-02  -8.680e-01   0.000e+00
  -1.447e-01  -8.680e-01   0.000e+00
   0.000e+00  -9.403e-01   0.000e+00
   0.000e+00  -8.680e-01   0.000e+00
  -7.233e-02  -8.680e-01   0.000e+00
   7.233e-02  -9.403e-01   0.000e+00
   7.233e-02  -8.680e-01   0.000e+00
   0.000e+00  -8.680e-01   0.000e+00
   1.447e-01  -9.403e-01   0.000e+00
   1.447e-01  -8.680e-01   0.000e+00
   7.233e-02  -8.680e-01   0.000e+00
   2.170e-01  -9.403e-01   0.000e+00
   2.170e-01  -8.680e-01   0.000e+00
   1.447e-01  -8.680e-01   0.000e+00
   2.893e-01  -9.403e-01   0.000e+00
   2.893e-01  -8.680e-01   0.000e+00
   2.170e-01  -8.680e-01   0.000e+00
   3.617e-01  -9.403e-01   0.000e+00
   3.617e-01  -8.680e-01   0.000e+00
   2.893e-01  -8.680e-01   0.000e+00
   4.340e-01  -9.403e-01   0.000e+00
   4.340e-01  -8.680e-01   0.000e+00
   3.617e-01  -8.680e-01   0.000e+00
   5.063e-01  -9.403e-01   0.000e+00
   5.063e-01  -8.680e-01   0.000e+00
   4.340e-01  -8.680e-01   0.000e+00
   5.787e-01  -9.403e-01   0.000e+00
   5.787e-01  -8.680e-01   0.000e+00
   5.063e-01  -8.680e-01   0.000e+00
   6.510e-01  -9.403e-01   0.000e+00
   6.510e-01  -8.680e-01   0.000e+00
   5.787e-01  -8.680e-01   0.000e+00
   7.233e-01  -9.403e-01   0.000e+00
   7.233e-01  -8.680e-01   0.000e+00
   6.510e-01  -8.680e-01   0.000e+00
   7.957e-01  -9.403e-01   0.000e+00
   7.957e-01  -8.680e-01   0.000e+00
   7.233e-01  -8.680e-01   0.000e+00
   8.680e-01  -9.403e-01   0.000e+00
   8.680e-01  -8.680e-01   0.000e+00
   7.957e-01  -8.680e-01   0.000e+00
   9.403e-01  -9.403e-01   0.000e+00
   9.403e-01  -8.680e-01   0.000e+00
   8.680e-01  -8.680e-01   0.000e+00
   1.013e+00  -9.403e-01   0.000e+00
   1.013e+00  -8.680e-01   0.000e+00
   9.403e-01  -8.680e-01   0.000e+00
   1.085e+00  -9.403e-01   0.000e+00
   1.085e+00  -8.680e-01   0.000e+00
   1.013e+00  -8.680e-01   0.000e+00
  -1.013e+00  -8.680e-01   0.000e+00
  -1.013e+00  -7.957e-01   0.000e+00
  -1.085e+00  -7.957e-01   0.000e+00
  -9.403e-01  -8.680e-01   0.000e+00
  -9.403e-01  -7.957e-01   0.000e+00
  -1.013e+00  -7.957e-01   0.000e+00
  -8.680e-01  -8.680e-01   0.000e+00
  -8.680e-01  -7.957e-01   0.000e+00
  -9.403e-01  -7.957e-01   0.000e+00
  -7.957e-01  -8.680e-01   0.000e+00
  -7.957e-01  -7.957e-01   0.000e+00
  -8.680e-01  -7.957e-01   0.000e+00
  -7.233e-01  -8.680e-01   0.000e+00
  -7.233e-01  -7.957e-01   0.000e+00
  -7.957e-01  -7.957e-01   0.000e+00
  -6.510e-01  -8.680e-01   0.000e+00
  -6.510e-01  -7.957e-01   0.000e+00
  -7.233e-01  -7.957e-01   0.000e+00
  -5.787e-01  -8.680e-01   0.000e+00
  -5.787e-01  -7.957e-01   0.000e+00
  -6.510e-01  -7.957e-01   0.000e+00
  -5.063e-01  -8.680e-01   0.000e+00
  -5.063e-01  -7.957e-01   0.000e+00
  -5.787e-01  -7.957e-01   0.000e+00
  -4.340e-01  -8.680e-01   0.000e+00
  -4.340e-01  -7.957e-01   0.000e+00
  -5.063e-01  -7.957e-01   0.000e+00
  -3.617e-01  -8.680e-01   0.000e+00
  -3.617e-01  -7.957e-01   0.000e+00
  -4.340e-01  -7.957e-01   0.000e+00
  -2.893e-01  -8.680e-01   0.000e+00
  -2.893e-01  -7.957e-01   0.000e+00
  -3.617e-01  -7.957e-01   0.000e+00
  -2.170e-01  -8.680e-01   0.000e+00
  -2.170e-01  -7.957e-01   0.000e+00
  -2.893e-01  -7.957e-01   0.000e+00
  -1.447e-01  -8.680e-01   0.000e+00
  -1.447e-01  -7.957e-01   0.000e+00
  -2.170e-01  -7.957e-01   0.000e+00
  -7.233e-02  -8.680e-01   0.000e+00
  -7.233e-02  -7.957e-01   0.000e+00
  -1.447e-01  -7.957e-01   0.000e+00
   0.000e+00  -8.680e-01   0.000e+00
   0.000e+00  -7.957e-01   0.000e+00
  -7.233e-02  -7.957e-01   0.000e+00
   7.233e-02  -8.680e-01   0.000e+00
   7.233e-02  -7.957e-01   0.000e+00
   0.000e+00  -7.957e-01   0.000e+00
   1.447e-01  -8.680e-01   0.000e+00
   1.447e-01  -7.957e-01   0.000e+00
   7.233e-02  -7.957e-01   0.000e+00
   2.170e-01  -8.680e-01   0.000e+00
   2.170e-01  -7.957e-01   0.000e+00
   1.447e-01  -7.957e-01   0.000e+00
   2.893e-01  -8.680e-01   0.000e+00
   2.893e-01  -7.957e-01   0.000e+00
   2.170e-01  -7.957e-01   0.000e+00
   3.617e-01  -8.680e-01   0.000e+00
   3.617e-01  -7.957e-01   0.000e+00
   2.893e-01  -7.957e-01   0.000e+00
   4.340e-01  -8.680e-01   0.000e+00
   4.340e-01  -7.957e-01   0.000e+00
   3.617e-01  -7.957e-01   0.000e+00
   5.063e-01  -8.680e-01   0.000e+00
   5.063e-01  -7.957e-01   0.000e+00
   4.340e-01  -7.957e-01   0.000e+00
   5.787e-01  -8.680e-01   0.000e+00
   5.787e-01  -7.957e-01   0.000e+00
   5.063e-01  -7.957e-01   0.000e+00
   6.510e-01  -8.680e-01   0.000e+00
   6.510e-01  -7.957e-01   0.000e+00
   5.787e-01  -7.957e-01   0.000e+00
   7.233e-01  -8.680e-01   0.000e+00
   7.233e-01  -7.957e-01   0.000e+00
   6.510e-01  -7.957e-01   0.000e+00
   7.957e-01  -8.680e-01   0.000e+00
   7.957e-01  -7.957e-01   0.000e+00
   7.233e-01  -7.957e-01   0.000e+00
   8.680e-01  -8.680e-01   0.000e+00
   8.680e-01  -7.957e-01   0.000e+00
   7.957e-01  -7.957e-01   0.000e+00
   9.403e-01  -8.680e-01   0.000e+00
   9.403e-01  -7.957e-01   0.000e+00
   8.680e-01  -7.957e-01   0.000e+00
   1.013e+00  -8.680e-01   0.000e+00
   1.013e+00  -7.957e-01   0.000e+00
   9.403e-01  -7.957e-01   0.000e+00
   1.085e+00  -8.680e-01   0.000e+00
   1.085e+00  -7.957e-01   0.000e+00
   1.013e+00  -7.957e-01   0.000e+00
  -1.013e+00  -7.957e-01   0.000e+00
  -1.013e+00  -7.233e-01   0.000e+00
  -1.085e+00  -7.233e-01   0.000e+00
  -9.403e-01  -7.957e-01   0.000e+00
  -9.403e-01  -7.233e-01   0.000e+00
  -1.013e+00  -7.233e-01   0.000e+00
  -8.680e-01  -7.957e-01   0.000e+00
  -8.680e-01  -7.233e-01   0.000e+00
  -9.403e-01  -7.233e-01   0.000e+00
  -7.957e-01  -7.957e-01   0.000e+00
  -7.957e-01  -7.233e-01   0.000e+00
  -8.680e-01  -7.233e-01   0.000e+00
  -7.233e-01  -7.957e-01   0.000e+00
  -7.233e-01  -7.233e-01   0.000e+00
  -7.957e-01  -7.233e-01   0.000e+00
  -6.510e-01  -7.957e-01   0.000e+00
  -6.510e-01  -7.233e-01   0.000e+00
  -7.233e-01  -7.233e-01   0.000e+00
  -5.787e-01  -7.957e-01   0.000e+00
  -5.787e-01  -7.233e-01   0.000e+00
  -6.510e-01  -7.233e-01   0.000e+00
  -5.063e-01  -7.957e-01   0.000e+00
  -5.063e-01  -7.233e-01   0.000e+00
  -5.787e-01  -7.233e-01   0.000e+00
  -4.340e-01  -7.957e-01   0.000e+00
  -4.340e-01  -7.233e-01   0.000e+00
  -5.063e-01  -7.233e-01   0.000e+00
  -3.617e-01  -7.957e-01   0.000e+00
  -3.617e-01  -7.233e-01   0.000e+00
  -4.340e-01  -7.233e-01   0.000e+00
  -2.893e-01  -7.957e-01   0.000e+00
  -2.893e-01  -7.233e-01   0.000e+00
  -3.617e-01  -7.233e-01   0.000e+00
  -2.170e-01  -7.957e-01   0.000e+00
  -2.170e-01  -7.233e-01   0.000e+00
  -2.893e-01  -7.233e-01   0.000e+00
  -1.447e-01  -7.957e-01   0.000e+00
  -1.447e-01  -7.233e-01   0.000e+00
  -2.170e-01  -7.233e-01   0.000e+00
  -7.233e-02  -7.957e-01   0.000e+00
  -7.233e-02  -7.233e-01   0.000e+00
  -1.447e-01  -7.233e-01   0.000e+00
   0.000e+00  -7.957e-01   0.000e+00
   0.000e+00  -7.233e-01   0.000e+00
  -7.233e-02  -7.233e-01   0.000e+00
   7.233e-02  -7.957e-01   0.000e+00
   7.233e-02  -7.233e-01   0.000e+00
   0.000e+00  -7.233e-01   0.000e+00
   1.447e-01  -7.957e-01   0.000e+00
   1.447e-01  -7.233e-01   0.000e+00
   7.233e-02  -7.233e-01   0.000e+00
   2.170e-01  -7.957e-01   0.000e+00
   2.170e-01  -7.233e-01   0.000e+00
   1.447e-01  -7.233e-01   0.000e+00
   2.893e-01  -7.957e-01   0.000e+00
   2.893e-01  -7.233e-01   0.000e+00
   2.170e-01  -7.233e-01   0.000e+00
   3.617e-01  -7.957e-01   0.000e+00
   3.617e-01  -7.233e-01   0.000e+00
   2.893e-01  -7.233e-01   0.000e+00
   4.340e-01  -7.957e-01   0.000e+00
   4.340e-01  -7.233e-01   0.000e+00
   3.617e-01  -7.233e-01   0.000e+00
   5.063e-01  -7.957e-01   0.000e+00
   5.063e-01  -7.233e-01   0.000e+00
   4.340e-01  -7.233e-01   0.000e+00
   5.787e-01  -7.957e-01   0.000e+00
   5.787e-01  -7.233e-01   0.000e+00
   5.063e-01  -7.233e-01   0.000e+00
   6.510e-01  -7.957e-01   0.000e+00
   6.510e-01  -7.233e-01   0.000e+00
   5.787e-01  -7.233e-01   0.000e+00
   7.233e-01  -7.957e-01   0.000e+00
   7.233e-01  -7.233e-01   0.000e+00
   6.510e-01  -7.233e-01   0.000e+00
   7.957e-01  -7.957e-01   0.000e+00
   7.957e-01  -7.233e-01   0.000e+00
   7.233e-01  -7.233e-01   0.000e+00
   8.680e-01  -7.957e-01   0.000e+00
   8.680e-01  -7.233e-01   0.000e+00
   7.957e-01  -7.233e-01   0.000e+00
   9.403e-01  -7.957e-01   0.000e+00
   9.403e-01  -7.233e-01   0.000e+00
   8.680e-01  -7.233e-01   0.000e+00
   1.013e+00  -7.957e-01   0.000e+00
   1.013e+00  -7.233e-01   0.000e+00
   9.403e-01  -7.233e-01   0.000e+00
   1.085e+00  -7.957e-01   0.000e+00
   1.085e+00  -7.233e-01   0.000e+00
   1.013e+00  -7.233e-01   0.000e+00
  -1.013e+00  -7.233e-01   0.000e+00
  -1.013e+00  -6.510e-01   0.000e+00
  -1.085e+00  -6.510e-01   0.000e+00
  -9.403e-01  -7.233e-01   0.000e+00
  -9.403e-01  -6.510e-01   0.000e+00
  -1.013e+00  -6.510e-01   0.000e+00
  -8.680e-01  -7.233e-01   0.000e+00
  -8.680e-01  -6.510e-01   0.000e+00
  -9.403e-01  -6.510e-01   0.000e+00
  -7.957e-01  -7.233e-01   0.000e+00
  -7.957e-01  -6.510e-01   0.000e+00
  -8.680e-01  -6.510e-01   0.000e+00
  -7.233e-01  -7.233e-01   0.000e+00
  -7.233e-01  -6.510e-01   0.000e+00
  -7.957e-01  -6.510e-01   0.000e+00
  -6.510e-01  -7.233e-01   0.000e+00
  -6.510e-01  -6.510e-01   0.000e+00
  -7.233e-01  -6.510e-01   0.000e+00
  -5.787e-01  -7.233e-01   0.000e+00
  -5.787e-01  -6.510e-01   0.000e+00
  -6.510e-01  -6.510e-01   0.000e+00
  -5.063e-01  -7.233e-01   0.000e+00
  -5.063e-01  -6.510e-01   0.000e+00
  -5.787e-01  -6.510e-01   0.000e+00
  -4.340e-01  -7.233e-01   0.000e+00
  -4.340e-01  -6.510e-01   0.000e+00
  -5.063e-01  -6.510e-01   0.000e+00
  -3.617e-01  -7.233e-01   0.000e+00
  -3.617e-01  -6.510e-01   0.000e+00
  -4.340e-01  -6.510e-01   0.000e+00
  -2.893e-01  -7.233e-01   0.000e+00
  -2.893e-01  -6.510e-01   0.000e+00
  -3.617e-01  -6.510e-01   0.000e+00
  -2.170e-01  -7.233e-01   0.000e+00
  -2.170e-01  -6.510e-01   0.000e+00
  -2.893e-01  -6.510e-01   0.000e+00
  -1.447e-01  -7.233e-01   0.000e+00
  -1.447e-01  -6.510e-01   0.000e+00
  -2.170e-01  -6.510e-01   0.000e+00
  -7.233e-02  -7.233e-01   0.000e+00
  -7.233e-02  -6.510e-01   0.000e+00
  -1.447e-01  -6.510e-01   0.000e+00
   0.000e+00  -7.233e-01   0.000e+00
   0.000e+00  -6.510e-01   0.000e+00
  -7.233e-02  -6.510e-01   0.000e+00
   7.233e-02  -7.233e-01   0.000e+00
   7.233e-02  -6.510e-01   0.000e+00
   0.000e+00  -6.510e-01   0.000e+00
   1.447e-01  -7.233e-01   0.000e+00
   1.447e-01  -6.510e-01   0.000e+00
   7.233e-02  -6.510e-01   0.000e+00
   2.170e-01  -7.233e-01   0.000e+00
   2.170e-01  -6.510e-01   0.000e+00
   1.447e-01  -6.510e-01   0.000e+00
   2.893e-01  -7.233e-01   0.000e+00
   2.893e-01  -6.510e-01   0.000e+00
   2.170e-01  -6.510e-01   0.000e+00
   3.617e-01  -7.233e-01   0.000e+00
   3.617e-01  -6.510e-01   0.000e+00
   2.893e-01  -6.510e-01   0.000e+00
   4.340e-01  -7.233e-01   0.000e+00
   4.340e-01  -6.510e-01   0.000e+00
   3.617e-01  -6.510e-01   0.000e+00
   5.063e-01  -7.233e-01   0.000e+00
   5.063e-01  -6.510e-01   0.000e+00
   4.340e-01  -6.510e-01   0.000e+00
   5.787e-01  -7.233e-01   0.000e+00
   5.787e-01  -6.510e-01   0.000e+00
   5.063e-01  -6.510e-01   0.000e+00
   6.510e-01  -7.233e-01   0.000e+00
   6.510e-01  -6.510e-01   0.000e+00
   5.787e-01  -6.510e-01   0.000e+00
   7.233e-01  -7.233e-01   0.000e+00
   7.233e-01  -6.510e-01   0.000e+00
   6.510e-01  -6.510e-01   0.000e+00
   7.957e-01  -7.233e-01   0.000e+00
   7.957e-01  -6.510e-01   0.000e+00
   7.233e-01  -6.510e-01   0.000e+00
   8.680e-01  -7.233e-01   0.000e+00
   8.680e-01  -6.510e-01   0.000e+00
   7.957e-01  -6.510e-01   0.000e+00
   9.403e-01  -7.233e-01   0.000e+00
   9.403e-01  -6.510e-01   0.000e+00
   8.680e-01  -6.510e-01   0.000e+00
   1.013e+00  -7.233e-01   0.000e+00
   1.013e+00  -6.510e-01   0.000e+00
   9.403e-01  -6.510e-01   0.000e+00
   1.085e+00  -7.233e-01   0.000e+00
   1.085e+00  -6.510e-01   0.000e+00
   1.013e+00  -6.510e-01   0.000e+00
  -1.013e+00  -6.510e-01   0.000e+00
  -1.013e+00  -5.787e-01   0.000e+00
  -1.085e+00  -5.787e-01   0.000e+00
  -9.403e-01  -6.510e-01   0.000e+00
  -9.403e-01  -5.787e-01   0.000e+00
  -1.013e+00  -5.787e-01   0.000e+00
  -8.680e-01  -6.510e-01   0.000e+00
  -8.680e-01  -5.787e-01   0.000e+00
  -9.403e-01  -5.787e-01   0.000e+00
  -7.957e-01  -6.510e-01   0.000e+00
  -7.957e-01  -5.787e-01   0.000e+00
  -8.680e-01  -5.787e-01   0.000e+00
  -7.233e-01  -6.510e-01   0.000e+00
  -7.233e-01  -5.787e-01   0.000e+00
  -7.957e-01  -5.787e-01   0.000e+00
  -6.510e-01  -6.510e-01   0.000e+00
  -6.510e-01  -5.787e-01   0.000e+00
  -7.233e-01  -5.787e-01   0.000e+00
  -5.787e-01  -6.510e-01   0.000e+00
  -5.787e-01  -5.787e-01   0.000e+00
  -6.510e-01  -5.787e-01   0.000e+00
  -5.063e-01  -6.510e-01   0.000e+00
  -5.063e-01  -5.787e-01   0.000e+00
  -5.787e-01  -5.787e-01   0.000e+00
  -4.340e-01  -6.510e-01   0.000e+00
  -4.340e-01  -5.787e-01   0.000e+00
  -5.063e-01  -5.787e-01   0.000e+00
  -3.617e-01  -6.510e-01   0.000e+00
  -3.617e-01  -5.787e-01   0.000e+00
  -4.340e-01  -5.787e-01   0.000e+00
  -2.893e-01  -6.510e-01   0.000e+00
  -2.893e-01  -5.787e-01   0.000e+00
  -3.617e-01  -5.787e-01   0.000e+00
  -2.170e-01  -6.510e-01   0.000e+00
  -2.170e-01  -5.787e-01   0.000e+00
  -2.893e-01  -5.787e-01   0.000e+00
  -1.447e-01  -6.510e-01   0.000e+00
  -1.447e-01  -5.787e-01   0.000e+00
  -2.170e-01  -5.787e-01   0.000e+00
  -7.233e-02  -6.510e-01   0.000e+00
  -7.233e-02  -5.787e-01   0.000e+00
  -1.447e-01  -5.787e-01   0.000e+00
   0.000e+00  -6.510e-01   0.000e+00
   0.000e+00  -5.787e-01   0.000e+00
  -7.233e-02  -5.787e-01   0.000e+00
   7.233e-02  -6.510e-01   0.000e+00
   7.233e-02  -5.787e-01   0.000e+00
   0.000e+00  -5.787e-01   0.000e+00
   1.447e-01  -6.510e-01   0.000e+00
   1.447e-01  -5.787e-01   0.000e+00
   7.233e-02  -5.787e-01   0.000e+00
   2.170e-01  -6.510e-01   0.000e+00
   2.170e-01  -5.787e-01   0.000e+00
   1.447e-01  -5.787e-01   0.000e+00
   2.893e-01  -6.510e-01   0.000e+00
   2.893e-01  -5.787e-01   0.000e+00
   2.170e-01  -5.787e-01   0.000e+00
   3.617e-01  -6.510e-01   0.000e+00
   3.617e-01  -5.787e-01   0.000e+00
   2.893e-01  -5.787e-01   0.000e+00
   4.340e-01  -6.510e-01   0.000e+00
   4.340e-01  -5.787e-01   0.000e+00
   3.617e-01  -5.787e-01   0.000e+00
   5.063e-01  -6.510e-01   0.000e+00
   5.063e-01  -5.787e-01   0.000e+00
   4.340e-01  -5.787e-01   0.000e+00
   5.787e-01  -6.510e-01   0.000e+00
   5.787e-01  -5.787e-01   0.000e+00
   5.063e-01  -5.787e-01   0.000e+00
   6.510e-01  -6.510e-01   0.000e+00
   6.510e-01  -5.787e-01   0.000e+00
   5.787e-01  -5.787e-01   0.000e+00
   7.233e-01  -6.510e-01   0.000e+00
   7.233e-01  -5.787e-01   0.000e+00
   6.510e-01  -5.787e-01   0.000e+00
   7.957e-01  -6.510e-01   0.000e+00
   7.957e-01  -5.787e-01   0.000e+00
   7.233e-01  -5.787e-01   0.000e+00
   8.680e-01  -6.510e-01   0.000e+00
   8.680e-01  -5.787e-01   0.000e+00
   7.957e-01  -5.787e-01   0.000e+00
   9.403e-01  -6.510e-01   0.000e+00
   9.403e-01  -5.787e-01   0.000e+00
   8.680e-01  -5.787e-01   0.000e+00
   1.013e+00  -6.510e-01   0.000e+00
   1.013e+00  -5.787e-01   0.000e+00
   9.403e-01  -5.787e-01   0.000e+00
   1.085e+00  -6.510e-01   0.000e+00
   1.085e+00  -5.787e-01   0.000e+00
   1.013e+00  -5.787e-01   0.000e+00
  -1.013e+00  -5.787e-01   0.000e+00
  -1.013e+00  -5.063e-01   0.000e+00
  -1.085e+00  -5.063e-01   0.000e+00
  -9.403e-01  -5.787e-01   0.000e+00
  -9.403e-01  -5.063e-01   0.000e+00
  -1.013e+00  -5.063e-01   0.000e+00
  -8.680e-01  -5.787e-01   0.000e+00
  -8.680e-01  -5.063e-01   0.000e+00
  -9.403e-01  -5.063e-01   0.000e+00
  -7.957e-01  -5.787e-01   0.000e+00
  -7.957e-01  -5.063e-01   0.000e+00
  -8.680e-01  -5.063e-01   0.000e+00
  -7.233e-01  -5.787e-01   0.000e+00
  -7.233e-01  -5.063e-01   0.000e+00
  -7.957e-01  -5.063e-01   0.000e+00
  -6.510e-01  -5.787e-01   0.000e+00
  -6.510e-01  -5.063e-01   0.000e+00
  -7.233e-01  -5.063e-01   0.000e+00
  -5.787e-01  -5.787e-01   0.000e+00
  -5.787e-01  -5.063e-01   0.000e+00
  -6.510e-01  -5.063e-01   0.000e+00
  -5.063e-01  -5.787e-01   0.000e+00
  -5.063e-01  -5.063e-01   0.000e+00
  -5.787e-01  -5.063e-01   0.000e+00
  -4.340e-01  -5.787e-01   0.000e+00
  -4.340e-01  -5.063e-01   0.000e+00
  -5.063e-01  -5.063e-01   0.000e+00
  -3.617e-01  -5.787e-01   0.000e+00
  -3.617e-01  -5.425e-01   0.000e+00
  -3.978e-01  -5.425e-01   0.000e+00
  -3.617e-01  -5.063e-01   0.000e+00
  -3.819e-01  -5.063e-01   0.000e+00
  -3.617e-01  -5.243e-01   0.000e+00
  -3.819e-01  -5.063e-01   0.000e+00
  -3.617e-01  -5.243e-01   0.000e+00
  -3.978e-01  -5.063e-01   0.000e+00
  -3.617e-01  -5.425e-01   0.000e+00
  -3.978e-01  -5.063e-01   0.000e+00
  -3.978e-01  -5.425e-01   0.000e+00
  -3.617e-01  -5.425e-01   0.000e+00
  -4.340e-01  -5.063e-01   0.000e+00
  -3.978e-01  -5.425e-01   0.000e+00
  -3.978e-01  -5.063e-01   0.000e+00
  -2.893e-01  -5.787e-01   0.000e+00
  -2.893e-01  -5.425e-01   0.000e+00
  -3.255e-01  -5.425e-01   0.000e+00
  -2.893e-01  -5.063e-01   0.000e+00
  -3.255e-01  -5.063e-01   0.000e+00
  -2.893e-01  -5.380e-01   0.000e+00
  -2.939e-01  -5.379e-01   0.000e+00
  -2.893e-01  -5.380e-01   0.000e+00
  -2.939e-01  -5.379e-01   0.000e+00
  -2.893e-01  -5.425e-01   0.000e+00
  -3.255e-01  -5.063e-01   0.000e+00
  -2.939e-01  -5.379e-01   0.000e+00
  -3.255e-01  -5.380e-01   0.000e+00
  -2.939e-01  -5.379e-01   0.000e+00
  -3.255e-01  -5.380e-01   0.000e+00
  -3.255e-01  -5.425e-01   0.000e+00
  -2.893e-01  -5.425e-01   0.000e+00
  -3.617e-01  -5.063e-01   0.000e+00
  -3.255e-01  -5.380e-01   0.000e+00
  -3.337e-01  -5.343e-01   0.000e+00
  -3.255e-01  -5.063e-01   0.000e+00
  -3.255e-01  -5.380e-01   0.000e+00
  -3.337e-01  -5.343e-01   0.000e+00
  -3.255e-01  -5.425e-01   0.000e+00
  -2.170e-01  -5.787e-01   0.000e+00
  -2.170e-01  -5.425e-01   0.000e+00
  -2.532e-01  -5.425e-01   0.000e+00
  -2.170e-01  -5.063e-01   0.000e+00
  -2.532e-01  -5.063e-01   0.000e+00
  -2.170e-01  -5.133e-01   0.000e+00
  -2.368e-01  -5.227e-01   0.000e+00
  -2.170e-01  -5.133e-01   0.000e+00
  -2.368e-01  -5.227e-01   0.000e+00
  -2.170e-01  -5.425e-01   0.000e+00
  -2.532e-01  -5.063e-01   0.000e+00
  -2.368e-01  -5.227e-01   0.000e+00
  -2.532e-01  -5.291e-01   0.000e+00
  -2.368e-01  -5.227e-01   0.000e+00
  -2.532e-01  -5.291e-01   0.000e+00
  -2.532e-01  -5.425e-01   0.000e+00
  -2.170e-01  -5.425e-01   0.000e+00
  -2.893e-01  -5.063e-01   0.000e+00
  -2.532e-01  -5.291e-01   0.000e+00
  -2.635e-01  -5.321e-01   0.000e+00
  -2.532e-01  -5.063e-01   0.000e+00
  -2.532e-01  -5.291e-01   0.000e+00
  -2.635e-01  -5.321e-01   0.000e+00
  -2.532e-01  -5.425e-01   0.000e+00
  -1.447e-01  -5.787e-01   0.000e+00
  -1.447e-01  -5.425e-01   0.000e+00
  -1.808e-01  -5.425e-01   0.000e+00
  -1.447e-01  -5.063e-01   0.000e+00
  -1.808e-01  -5.063e-01   0.000e+00
  -1.447e-01  -5.425e-01   0.000e+00
  -1.808e-01  -5.063e-01   0.000e+00
  -1.808e-01  -5.425e-01   0.000e+00
  -1.447e-01  -5.425e-01   0.000e+00
  -2.170e-01  -5.063e-01   0.000e+00
  -2.124e-01  -5.109e-01   0.000e+00
  -2.049e-01  -5.063e-01   0.000e+00
  -2.124e-01  -5.109e-01   0.000e+00
  -2.049e-01  -5.063e-01   0.000e+00
  -1.808e-01  -5.425e-01   0.000e+00
  -1.808e-01  -5.063e-01   0.000e+00
  -7.233e-02  -5.787e-01   0.000e+00
  -7.233e-02  -5.063e-01   0.000e+00
  -1.447e-01  -5.063e-01   0.000e+00
   0.000e+00  -5.787e-01   0.000e+00
   0.000e+00  -5.063e-01   0.000e+00
  -7.233e-02  -5.063e-01   0.000e+00
   7.233e-02  -5.787e-01   0.000e+00
   7.233e-02  -5.063e-01   0.000e+00
   0.000e+00  -5.063e-01   0.000e+00
   1.447e-01  -5.787e-01   0.000e+00
   1.447e-01  -5.063e-01   0.000e+00
   7.233e-02  -5.063e-01   0.000e+00
   2.170e-01  -5.787e-01   0.000e+00
   2.170e-01  -5.063e-01   0.000e+00
   1.447e-01  -5.063e-01   0.000e+00
   2.893e-01  -5.787e-01   0.000e+00
   2.893e-01  -5.063e-01   0.000e+00
   2.170e-01  -5.063e-01   0.000e+00
   3.617e-01  -5.787e-01   0.000e+00
   3.617e-01  -5.425e-01   0.000e+00
   3.255e-01  -5.425e-01   0.000e+00
   3.617e-01  -5.063e-01   0.000e+00
   3.255e-01  -5.063e-01   0.000e+00
   3.617e-01  -5.347e-01   0.000e+00
   3.495e-01  -5.303e-01   0.000e+00
   3.617e-01  -5.347e-01   0.000e+00
   3.495e-01  -5.303e-01   0.000e+00
   3.617e-01  -5.425e-01   0.000e+00
   3.255e-01  -5.063e-01   0.000e+00
   3.495e-01  -5.303e-01   0.000e+00
   3.255e-01  -5.224e-01   0.000e+00
   3.495e-01  -5.303e-01   0.000e+00
   3.255e-01  -5.224e-01   0.000e+00
   3.255e-01  -5.425e-01   0.000e+00
   3.617e-01  -5.425e-01   0.000e+00
   3.255e-01  -5.224e-01   0.000e+00
   2.940e-01  -5.063e-01   0.000e+00
   3.255e-01  -5.063e-01   0.000e+00
   2.893e-01  -5.063e-01   0.000e+00
   3.255e-01  -5.425e-01   0.000e+00
   3.255e-01  -5.224e-01   0.000e+00
   2.940e-01  -5.063e-01   0.000e+00
   4.340e-01  -5.787e-01   0.000e+00
   4.340e-01  -5.425e-01   0.000e+00
   3.978e-01  -5.425e-01   0.000e+00
   4.340e-01  -5.063e-01   0.000e+00
   3.978e-01  -5.063e-01   0.000e+00
   4.340e-01  -5.330e-01   0.000e+00
   4.264e-01  -5.349e-01   0.000e+00
   4.340e-01  -5.330e-01   0.000e+00
   4.264e-01  -5.349e-01   0.000e+00
   4.340e-01  -5.425e-01   0.000e+00
   3.978e-01  -5.063e-01   0.000e+00
   4.264e-01  -5.349e-01   0.000e+00
   3.978e-01  -5.392e-01   0.000e+00
   4.264e-01  -5.349e-01   0.000e+00
   3.978e-01  -5.392e-01   0.000e+00
   3.978e-01  -5.425e-01   0.000e+00
   4.340e-01  -5.425e-01   0.000e+00
   3.617e-01  -5.063e-01   0.000e+00
   3.978e-01  -5.392e-01   0.000e+00
   3.940e-01  -5.387e-01   0.000e+00
   3.978e-01  -5.063e-01   0.000e+00
   3.978e-01  -5.392e-01   0.000e+00
   3.940e-01  -5.387e-01   0.000e+00
   3.978e-01  -5.425e-01   0.000e+00
   5.063e-01  -5.787e-01   0.000e+00
   5.063e-01  -5.425e-01   0.000e+00
   4.702e-01  -5.425e-01   0.000e+00
   4.722e-01  -5.063e-01   0.000e+00
   4.713e-01  -5.075e-01   0.000e+00
   4.702e-01  -5.063e-01   0.000e+00
   5.063e-01  -5.063e-01   0.000e+00
   4.722e-01  -5.063e-01   0.000e+00
   4.713e-01  -5.075e-01   0.000e+00
   5.063e-01  -5.425e-01   0.000e+00
   4.702e-01  -5.063e-01   0.000e+00
   4.713e-01  -5.075e-01   0.000e+00
   4.702e-01  -5.086e-01   0.000e+00
   4.713e-01  -5.075e-01   0.000e+00
   4.702e-01  -5.086e-01   0.000e+00
   4.702e-01  -5.425e-01   0.000e+00
   5.063e-01  -5.425e-01   0.000e+00
   4.340e-01  -5.063e-01   0.000e+00
   4.702e-01  -5.086e-01   0.000e+00
   4.519e-01  -5.243e-01   0.000e+00
   4.702e-01  -5.063e-01   0.000e+00
   4.702e-01  -5.086e-01   0.000e+00
   4.519e-01  -5.243e-01   0.000e+00
   4.702e-01  -5.425e-01   0.000e+00
   5.787e-01  -5.787e-01   0.000e+00
   5.787e-01  -5.063e-01   0.000e+00
   5.063e-01  -5.063e-01   0.000e+00
   6.510e-01  -5.787e-01   0.000e+00
   6.510e-01  -5.063e-01   0.000e+00
   5.787e-01  -5.063e-01   0.000e+00
   7.233e-01  -5.787e-01   0.000e+00
   7.233e-01  -5.063e-01   0.000e+00
   6.510e-01  -5.063e-01   0.000e+00
   7.957e-01  -5.787e-01   0.000e+00
   7.957e-01  -5.063e-01   0.000e+00
   7.233e-01  -5.063e-01   0.000e+00
   8.680e-01  -5.787e-01   0.000e+00
   8.680e-01  -5.063e-01   0.000e+00
   7.957e-01  -5.063e-01   0.000e+00
   9.403e-01  -5.787e-01   0.000e+00
   9.403e-01  -5.063e-01   0.000e+00
   8.680e-01  -5.063e-01   0.000e+00
   1.013e+00  -5.787e-01   0.000e+00
   1.013e+00  -5.063e-01   0.000e+00
   9.403e-01  -5.063e-01   0.000e+00
   1.085e+00  -5.787e-01   0.000e+00
   1.085e+00  -5.063e-01   0.000e+00
   1.013e+00  -5.063e-01   0.000e+00
  -1.013e+00  -5.063e-01   0.000e+00
  -1.013e+00  -4.340e-01   0.000e+00
  -1.085e+00  -4.340e-01   0.000e+00
  -9.403e-01  -5.063e-01   0.000e+00
  -9.403e-01  -4.340e-01   0.000e+00
  -1.013e+00  -4.340e-01   0.000e+00
  -8.680e-01  -5.063e-01   0.000e+00
  -8.680e-01  -4.340e-01   0.000e+00
  -9.403e-01  -4.340e-01   0.000e+00
  -7.957e-01  -5.063e-01   0.000e+00
  -7.957e-01  -4.340e-01   0.000e+00
  -8.680e-01  -4.340e-01   0.000e+00
  -7.233e-01  -5.063e-01   0.000e+00
  -7.233e-01  -4.340e-01   0.000e+00
  -7.957e-01  -4.340e-01   0.000e+00
  -6.510e-01  -5.063e-01   0.000e+00
  -6.510e-01  -4.340e-01   0.000e+00
  -7.233e-01  -4.340e-01   0.000e+00
  -5.787e-01  -5.063e-01   0.000e+00
  -5.787e-01  -4.340e-01   0.000e+00
  -6.510e-01  -4.340e-01   0.000e+00
  -5.063e-01  -5.063e-01   0.000e+00
  -5.063e-01  -4.340e-01   0.000e+00
  -5.787e-01  -4.340e-01   0.000e+00
  -4.340e-01  -5.063e-01   0.000e+00
  -4.340e-01  -4.340e-01   0.000e+00
  -5.063e-01  -4.340e-01   0.000e+00
  -3.617e-01  -5.063e-01   0.000e+00
  -3.617e-01  -4.702e-01   0.000e+00
  -3.978e-01  -4.702e-01   0.000e+00
  -3.617e-01  -4.340e-01   0.000e+00
  -3.978e-01  -4.340e-01   0.000e+00
  -3.617e-01  -4.702e-01   0.000e+00
  -3.978e-01  -4.340e-01   0.000e+00
  -3.978e-01  -4.702e-01   0.000e+00
  -3.617e-01  -4.702e-01   0.000e+00
  -4.027e-01  -4.653e-01   0.000e+00
  -4.086e-01  -4.340e-01   0.000e+00
  -3.978e-01  -4.702e-01   0.000e+00
  -3.978e-01  -4.340e-01   0.000e+00
  -4.340e-01  -4.340e-01   0.000e+00
  -4.027e-01  -4.653e-01   0.000e+00
  -4.086e-01  -4.340e-01   0.000e+00
  -2.893e-01  -5.063e-01   0.000e+00
  -2.893e-01  -4.340e-01   0.000e+00
  -3.617e-01  -4.340e-01   0.000e+00
  -2.170e-01  -5.063e-01   0.000e+00
  -2.170e-01  -4.340e-01   0.000e+00
  -2.893e-01  -4.340e-01   0.000e+00
  -1.685e-01  -4.825e-01   0.000e+00
  -1.530e-01  -4.702e-01   0.000e+00
  -1.808e-01  -4.702e-01   0.000e+00
  -1.447e-01  -5.063e-01   0.000e+00
  -1.447e-01  -4.702e-01   0.000e+00
  -1.685e-01  -4.825e-01   0.000e+00
  -1.530e-01  -4.702e-01   0.000e+00
  -1.447e-01  -4.340e-01   0.000e+00
  -1.808e-01  -4.340e-01   0.000e+00
  -1.447e-01  -4.633e-01   0.000e+00
  -1.483e-01  -4.665e-01   0.000e+00
  -1.447e-01  -4.633e-01   0.000e+00
  -1.483e-01  -4.665e-01   0.000e+00
  -1.447e-01  -4.702e-01   0.000e+00
  -1.808e-01  -4.340e-01   0.000e+00
  -1.808e-01  -4.702e-01   0.000e+00
  -1.530e-01  -4.702e-01   0.000e+00
  -1.483e-01  -4.665e-01   0.000e+00
  -1.530e-01  -4.702e-01   0.000e+00
  -1.483e-01  -4.665e-01   0.000e+00
  -1.447e-01  -4.702e-01   0.000e+00
  -2.170e-01  -4.340e-01   0.000e+00
  -1.808e-01  -4.702e-01   0.000e+00
  -1.808e-01  -4.340e-01   0.000e+00
  -7.233e-02  -5.063e-01   0.000e+00
  -7.233e-02  -4.702e-01   0.000e+00
  -1.085e-01  -4.702e-01   0.000e+00
  -7.233e-02  -4.340e-01   0.000e+00
  -1.085e-01  -4.340e-01   0.000e+00
  -7.233e-02  -4.702e-01   0.000e+00
  -1.085e-01  -4.340e-01   0.000e+00
  -1.085e-01  -4.702e-01   0.000e+00
  -7.233e-02  -4.702e-01   0.000e+00
  -1.447e-01  -4.340e-01   0.000e+00
  -1.291e-01  -4.496e-01   0.000e+00
  -1.130e-01  -4.340e-01   0.000e+00
  -1.291e-01  -4.496e-01   0.000e+00
  -1.130e-01  -4.340e-01   0.000e+00
  -1.085e-01  -4.702e-01   0.000e+00
  -1.085e-01  -4.340e-01   0.000e+00
   0.000e+00  -5.063e-01   0.000e+00
   0.000e+00  -4.340e-01   0.000e+00
  -7.233e-02  -4.340e-01   0.000e+00
   7.233e-02  -5.063e-01   0.000e+00
   7.233e-02  -4.340e-01   0.000e+00
   0.000e+00  -4.340e-01   0.000e+00
   1.447e-01  -5.063e-01   0.000e+00
   1.447e-01  -4.340e-01   0.000e+00
   7.233e-02  -4.340e-01   0.000e+00
   2.170e-01  -5.063e-01   0.000e+00
   2.170e-01  -4.702e-01   0.000e+00
   1.808e-01  -4.702e-01   0.000e+00
   2.170e-01  -4.340e-01   0.000e+00
   2.026e-01  -4.340e-01   0.000e+00
   2.170e-01  -4.479e-01   0.000e+00
   2.026e-01  -4.340e-01   0.000e+00
   2.170e-01  -4.479e-01   0.000e+00
   1.808e-01  -4.340e-01   0.000e+00
   2.170e-01  -4.702e-01   0.000e+00
   1.808e-01  -4.340e-01   0.000e+00
   1.808e-01  -4.702e-01   0.000e+00
   2.170e-01  -4.702e-01   0.000e+00
   1.447e-01  -4.340e-01   0.000e+00
   1.808e-01  -4.702e-01   0.000e+00
   1.808e-01  -4.340e-01   0.000e+00
   2.893e-01  -5.037e-01   0.000e+00
   2.805e-01  -4.975e-01   0.000e+00
   2.893e-01  -4.702e-01   0.000e+00
   2.532e-01  -4.702e-01   0.000e+00
   2.893e-01  -5.063e-01   0.000e+00
   2.893e-01  -5.037e-01   0.000e+00
   2.805e-01  -4.975e-01   0.000e+00
   2.893e-01  -4.340e-01   0.000e+00
   2.532e-01  -4.340e-01   0.000e+00
   2.893e-01  -4.702e-01   0.000e+00
   2.532e-01  -4.340e-01   0.000e+00
   2.532e-01  -4.702e-01   0.000e+00
   2.893e-01  -4.702e-01   0.000e+00
   2.170e-01  -4.340e-01   0.000e+00
   2.532e-01  -4.702e-01   0.000e+00
   2.532e-01  -4.340e-01   0.000e+00
   3.617e-01  -5.063e-01   0.000e+00
   3.617e-01  -4.340e-01   0.000e+00
   2.893e-01  -4.340e-01   0.000e+00
   4.340e-01  -5.063e-01   0.000e+00
   4.340e-01  -4.340e-01   0.000e+00
   3.617e-01  -4.340e-01   0.000e+00
   4.852e-01  -4.852e-01   0.000e+00
   4.913e-01  -4.702e-01   0.000e+00
   4.702e-01  -4.702e-01   0.000e+00
   5.063e-01  -5.063e-01   0.000e+00
   5.063e-01  -4.702e-01   0.000e+00
   4.852e-01  -4.852e-01   0.000e+00
   4.913e-01  -4.702e-01   0.000e+00
   4.981e-01  -4.340e-01   0.000e+00
   4.941e-01  -4.579e-01   0.000e+00
   4.702e-01  -4.340e-01   0.000e+00
   5.063e-01  -4.340e-01   0.000e+00
   4.981e-01  -4.340e-01   0.000e+00
   4.941e-01  -4.579e-01   0.000e+00
   5.063e-01  -4.702e-01   0.000e+00
   4.702e-01  -4.340e-01   0.000e+00
   4.702e-01  -4.702e-01   0.000e+00
   4.913e-01  -4.702e-01   0.000e+00
   4.941e-01  -4.579e-01   0.000e+00
   4.913e-01  -4.702e-01   0.000e+00
   4.941e-01  -4.579e-01   0.000e+00
   5.063e-01  -4.702e-01   0.000e+00
   4.340e-01  -4.340e-01   0.000e+00
   4.702e-01  -4.702e-01   0.000e+00
   4.702e-01  -4.340e-01   0.000e+00
   5.787e-01  -5.063e-01   0.000e+00
   5.787e-01  -4.340e-01   0.000e+00
   5.063e-01  -4.340e-01   0.000e+00
   6.510e-01  -5.063e-01   0.000e+00
   6.510e-01  -4.340e-01   0.000e+00
   5.787e-01  -4.340e-01   0.000e+00
   7.233e-01  -5.063e-01   0.000e+00
   7.233e-01  -4.340e-01   0.000e+00
   6.510e-01  -4.340e-01   0.000e+00
   7.957e-01  -5.063e-01   0.000e+00
   7.957e-01  -4.340e-01   0.000e+00
   7.233e-01  -4.340e-01   0.000e+00
   8.680e-01  -5.063e-01   0.000e+00
   8.680e-01  -4.340e-01   0.000e+00
   7.957e-01  -4.340e-01   0.000e+00
   9.403e-01  -5.063e-01   0.000e+00
   9.403e-01  -4.340e-01   0.000e+00
   8.680e-01  -4.340e-01   0.000e+00
   1.013e+00  -5.063e-01   0.000e+00
   1.013e+00  -4.340e-01   0.000e+00
   9.403e-01  -4.340e-01   0.000e+00
   1.085e+00  -5.063e-01   0.000e+00
   1.085e+00  -4.340e-01   0.000e+00
   1.013e+00  -4.340e-01   0.000e+00
  -1.013e+00  -4.340e-01   0.000e+00
  -1.013e+00  -3.617e-01   0.000e+00
  -1.085e+00  -3.617e-01   0.000e+00
  -9.403e-01  -4.340e-01   0.000e+00
  -9.403e-01  -3.617e-01   0.000e+00
  -1.013e+00  -3.617e-01   0.000e+00
  -8.680e-01  -4.340e-01   0.000e+00
  -8.680e-01  -3.617e-01   0.000e+00
  -9.403e-01  -3.617e-01   0.000e+00
  -7.957e-01  -4.340e-01   0.000e+00
  -7.957e-01  -3.617e-01   0.000e+00
  -8.680e-01  -3.617e-01   0.000e+00
  -7.233e-01  -4.340e-01   0.000e+00
  -7.233e-01  -3.617e-01   0.000e+00
  -7.957e-01  -3.617e-01   0.000e+00
  -6.510e-01  -4.340e-01   0.000e+00
  -6.510e-01  -3.617e-01   0.000e+00
  -7.233e-01  -3.617e-01   0.000e+00
  -5.787e-01  -4.340e-01   0.000e+00
  -5.787e-01  -3.617e-01   0.000e+00
  -6.510e-01  -3.617e-01   0.000e+00
  -5.063e-01  -4.340e-01   0.000e+00
  -5.063e-01  -3.617e-01   0.000e+00
  -5.787e-01  -3.617e-01   0.000e+00
  -4.340e-01  -4.340e-01   0.000e+00
  -4.340e-01  -3.617e-01   0.000e+00
  -5.063e-01  -3.617e-01   0.000e+00
  -3.617e-01  -4.340e-01   0.000e+00
  -3.617e-01  -3.978e-01   0.000e+00
  -3.978e-01  -3.978e-01   0.000e+00
  -3.617e-01  -3.617e-01   0.000e+00
  -3.978e-01  -3.617e-01   0.000e+00
  -3.617e-01  -3.978e-01   0.000e+00
  -3.978e-01  -3.617e-01   0.000e+00
  -3.978e-01  -3.978e-01   0.000e+00
  -3.617e-01  -3.978e-01   0.000e+00
  -4.068e-01  -3.889e-01   0.000e+00
  -4.023e-01  -3.617e-01   0.000e+00
  -3.978e-01  -3.978e-01   0.000e+00
  -3.978e-01  -3.617e-01   0.000e+00
  -4.340e-01  -3.617e-01   0.000e+00
  -4.068e-01  -3.889e-01   0.000e+00
  -4.023e-01  -3.617e-01   0.000e+00
  -2.893e-01  -4.340e-01   0.000e+00
  -2.893e-01  -3.617e-01   0.000e+00
  -3.617e-01  -3.617e-01   0.000e+00
  -2.170e-01  -4.340e-01   0.000e+00
  -2.170e-01  -3.617e-01   0.000e+00
  -2.893e-01  -3.617e-01   0.000e+00
  -1.447e-01  -4.340e-01   0.000e+00
  -1.447e-01  -3.617e-01   0.000e+00
  -2.170e-01  -3.617e-01   0.000e+00
  -9.311e-02  -4.132e-01   0.000e+00
  -7.952e-02  -3.978e-01   0.000e+00
  -1.085e-01  -3.978e-01   0.000e+00
  -7.233e-02  -4.340e-01   0.000e+00
  -7.233e-02  -3.978e-01   0.000e+00
  -9.311e-02  -4.132e-01   0.000e+00
  -7.952e-02  -3.978e-01   0.000e+00
  -7.233e-02  -3.617e-01   0.000e+00
  -1.085e-01  -3.617e-01   0.000e+00
  -7.233e-02  -3.894e-01   0.000e+00
  -7.616e-02  -3.940e-01   0.000e+00
  -7.233e-02  -3.894e-01   0.000e+00
  -7.616e-02  -3.940e-01   0.000e+00
  -7.233e-02  -3.978e-01   0.000e+00
  -1.085e-01  -3.617e-01   0.000e+00
  -1.085e-01  -3.978e-01   0.000e+00
  -7.952e-02  -3.978e-01   0.000e+00
  -7.616e-02  -3.940e-01   0.000e+00
  -7.952e-02  -3.978e-01   0.000e+00
  -7.616e-02  -3.940e-01   0.000e+00
  -7.233e-02  -3.978e-01   0.000e+00
  -1.447e-01  -3.617e-01   0.000e+00
  -1.085e-01  -3.978e-01   0.000e+00
  -1.085e-01  -3.617e-01   0.000e+00
   0.000e+00  -4.340e-01   0.000e+00
   0.000e+00  -3.978e-01   0.000e+00
  -3.617e-02  -3.978e-01   0.000e+00
   0.000e+00  -3.617e-01   0.000e+00
  -3.617e-02  -3.617e-01   0.000e+00
   0.000e+00  -3.978e-01   0.000e+00
  -3.617e-02  -3.617e-01   0.000e+00
  -3.617e-02  -3.978e-01   0.000e+00
   0.000e+00  -3.978e-01   0.000e+00
  -7.233e-02  -3.617e-01   0.000e+00
  -5.981e-02  -3.742e-01   0.000e+00
  -5.002e-02  -3.617e-01   0.000e+00
  -5.981e-02  -3.742e-01   0.000e+00
  -5.002e-02  -3.617e-01   0.000e+00
  -3.617e-02  -3.978e-01   0.000e+00
  -3.617e-02  -3.617e-01   0.000e+00
   7.233e-02  -4.340e-01   0.000e+00
   7.233e-02  -3.617e-01   0.000e+00
   0.000e+00  -3.617e-01   0.000e+00
   1.447e-01  -4.340e-01   0.000e+00
   1.447e-01  -3.978e-01   0.000e+00
   1.085e-01  -3.978e-01   0.000e+00
   1.447e-01  -3.617e-01   0.000e+00
   1.394e-01  -3.617e-01   0.000e+00
   1.447e-01  -3.683e-01   0.000e+00
   1.394e-01  -3.617e-01   0.000e+00
   1.447e-01  -3.683e-01   0.000e+00
   1.085e-01  -3.617e-01   0.000e+00
   1.447e-01  -3.978e-01   0.000e+00
   1.085e-01  -3.617e-01   0.000e+00
   1.085e-01  -3.978e-01   0.000e+00
   1.447e-01  -3.978e-01   0.000e+00
   7.233e-02  -3.617e-01   0.000e+00
   1.085e-01  -3.978e-01   0.000e+00
   1.085e-01  -3.617e-01   0.000e+00
   2.170e-01  -4.340e-01   0.000e+00
   2.170e-01  -3.617e-01   0.000e+00
   1.447e-01  -3.617e-01   0.000e+00
   2.893e-01  -4.340e-01   0.000e+00
   2.893e-01  -3.617e-01   0.000e+00
   2.170e-01  -3.617e-01   0.000e+00
   3.617e-01  -4.340e-01   0.000e+00
   3.617e-01  -3.617e-01   0.000e+00
   2.893e-01  -3.617e-01   0.000e+00
   4.340e-01  -4.340e-01   0.000e+00
   4.340e-01  -3.617e-01   0.000e+00
   3.617e-01  -3.617e-01   0.000e+00
   4.979e-01  -4.256e-01   0.000e+00
   4.975e-01  -3.978e-01   0.000e+00
   4.702e-01  -3.978e-01   0.000e+00
   5.063e-01  -4.340e-01   0.000e+00
   5.063e-01  -3.978e-01   0.000e+00
   4.979e-01  -4.256e-01   0.000e+00
   4.975e-01  -3.978e-01   0.000e+00
   4.917e-01  -3.617e-01   0.000e+00
   4.957e-01  -3.872e-01   0.000e+00
   4.702e-01  -3.617e-01   0.000e+00
   5.063e-01  -3.617e-01   0.000e+00
   4.917e-01  -3.617e-01   0.000e+00
   4.957e-01  -3.872e-01   0.000e+00
   5.063e-01  -3.978e-01   0.000e+00
   4.702e-01  -3.617e-01   0.000e+00
   4.702e-01  -3.978e-01   0.000e+00
   4.975e-01  -3.978e-01   0.000e+00
   4.957e-01  -3.872e-01   0.000e+00
   4.975e-01  -3.978e-01   0.000e+00
   4.957e-01  -3.872e-01   0.000e+00
   5.063e-01  -3.978e-01   0.000e+00
   4.340e-01  -3.617e-01   0.000e+00
   4.702e-01  -3.978e-01   0.000e+00
   4.702e-01  -3.617e-01   0.000e+00
   5.787e-01  -4.340e-01   0.000e+00
   5.787e-01  -3.617e-01   0.000e+00
   5.063e-01  -3.617e-01   0.000e+00
   6.510e-01  -4.340e-01   0.000e+00
   6.510e-01  -3.617e-01   0.000e+00
   5.787e-01  -3.617e-01   0.000e+00
   7.233e-01  -4.340e-01   0.000e+00
   7.233e-01  -3.617e-01   0.000e+00
   6.510e-01  -3.617e-01   0.000e+00
   7.957e-01  -4.340e-01   0.000e+00
   7.957e-01  -3.617e-01   0.000e+00
   7.233e-01  -3.617e-01   0.000e+00
   8.680e-01  -4.340e-01   0.000e+00
   8.680e-01  -3.617e-01   0.000e+00
   7.957e-01  -3.617e-01   0.000e+00
   9.403e-01  -4.340e-01   0.000e+00
   9.403e-01  -3.617e-01   0.000e+00
   8.680e-01  -3.617e-01   0.000e+00
   1.013e+00  -4.340e-01   0.000e+00
   1.013e+00  -3.617e-01   0.000e+00
   9.403e-01  -3.617e-01   0.000e+00
   1.085e+00  -4.340e-01   0.000e+00
   1.085e+00  -3.617e-01   0.000e+00
   1.013e+00  -3.617e-01   0.000e+00
  -1.013e+00  -3.617e-01   0.000e+00
  -1.013e+00  -2.893e-01   0.000e+00
  -1.085e+00  -2.893e-01   0.000e+00
  -9.403e-01  -3.617e-01   0.000e+00
  -9.403e-01  -2.893e-01   0.000e+00
  -1.013e+00  -2.893e-01   0.000e+00
  -8.680e-01  -3.617e-01   0.000e+00
  -8.680e-01  -2.893e-01   0.000e+00
  -9.403e-01  -2.893e-01   0.000e+00
  -7.957e-01  -3.617e-01   0.000e+00
  -7.957e-01  -2.893e-01   0.000e+00
  -8.680e-01  -2.893e-01   0.000e+00
  -7.233e-01  -3.617e-01   0.000e+00
  -7.233e-01  -2.893e-01   0.000e+00
  -7.957e-01  -2.893e-01   0.000e+00
  -6.510e-01  -3.617e-01   0.000e+00
  -6.510e-01  -2.893e-01   0.000e+00
  -7.233e-01  -2.893e-01   0.000e+00
  -5.787e-01  -3.617e-01   0.000e+00
  -5.787e-01  -2.893e-01   0.000e+00
  -6.510e-01  -2.893e-01   0.000e+00
  -5.063e-01  -3.617e-01   0.000e+00
  -5.063e-01  -2.893e-01   0.000e+00
  -5.787e-01  -2.893e-01   0.000e+00
  -4.340e-01  -3.617e-01   0.000e+00
  -4.340e-01  -2.893e-01   0.000e+00
  -5.063e-01  -2.893e-01   0.000e+00
  -3.617e-01  -3.617e-01   0.000e+00
  -3.617e-01  -3.255e-01   0.000e+00
  -3.936e-01  -3.297e-01   0.000e+00
  -3.923e-01  -3.255e-01   0.000e+00
  -3.936e-01  -3.297e-01   0.000e+00
  -3.923e-01  -3.255e-01   0.000e+00
  -3.978e-01  -3.255e-01   0.000e+00
  -3.617e-01  -2.893e-01   0.000e+00
  -3.787e-01  -2.893e-01   0.000e+00
  -3.842e-01  -3.030e-01   0.000e+00
  -3.617e-01  -3.255e-01   0.000e+00
  -3.787e-01  -2.893e-01   0.000e+00
  -3.842e-01  -3.030e-01   0.000e+00
  -3.978e-01  -2.893e-01   0.000e+00
  -3.923e-01  -3.255e-01   0.000e+00
  -3.842e-01  -3.030e-01   0.000e+00
  -3.617e-01  -3.255e-01   0.000e+00
  -3.978e-01  -2.893e-01   0.000e+00
  -3.978e-01  -3.255e-01   0.000e+00
  -3.923e-01  -3.255e-01   0.000e+00
  -3.842e-01  -3.030e-01   0.000e+00
  -4.340e-01  -2.893e-01   0.000e+00
  -3.978e-01  -3.255e-01   0.000e+00
  -3.978e-01  -2.893e-01   0.000e+00
  -2.893e-01  -3.617e-01   0.000e+00
  -2.893e-01  -2.893e-01   0.000e+00
  -3.617e-01  -2.893e-01   0.000e+00
  -2.170e-01  -3.617e-01   0.000e+00
  -2.170e-01  -2.893e-01   0.000e+00
  -2.893e-01  -2.893e-01   0.000e+00
  -1.447e-01  -3.617e-01   0.000e+00
  -1.447e-01  -2.893e-01   0.000e+00
  -2.170e-01  -2.893e-01   0.000e+00
  -7.233e-02  -3.617e-01   0.000e+00
  -7.233e-02  -2.893e-01   0.000e+00
  -1.447e-01  -2.893e-01   0.000e+00
  -2.854e-02  -3.331e-01   0.000e+00
  -2.300e-02  -3.255e-01   0.000e+00
  -3.617e-02  -3.255e-01   0.000e+00
   0.000e+00  -3.617e-01   0.000e+00
   0.000e+00  -3.255e-01   0.000e+00
  -2.854e-02  -3.331e-01   0.000e+00
  -2.300e-02  -3.255e-01   0.000e+00
   0.000e+00  -2.893e-01   0.000e+00
  -3.617e-02  -2.893e-01   0.000e+00
   0.000e+00  -2.940e-01   0.000e+00
  -1.334e-02  -3.122e-01   0.000e+00
   0.000e+00  -2.940e-01   0.000e+00
  -1.334e-02  -3.122e-01   0.000e+00
   0.000e+00  -3.255e-01   0.000e+00
  -3.617e-02  -2.893e-01   0.000e+00
  -3.617e-02  -3.255e-01   0.000e+00
  -2.300e-02  -3.255e-01   0.000e+00
  -1.334e-02  -3.122e-01   0.000e+00
  -2.300e-02  -3.255e-01   0.000e+00
  -1.334e-02  -3.122e-01   0.000e+00
   0.000e+00  -3.255e-01   0.000e+00
  -7.233e-02  -2.893e-01   0.000e+00
  -3.617e-02  -3.255e-01   0.000e+00
  -3.617e-02  -2.893e-01   0.000e+00
   7.233e-02  -3.617e-01   0.000e+00
   7.233e-02  -3.255e-01   0.000e+00
   3.617e-02  -3.255e-01   0.000e+00
   7.233e-02  -2.893e-01   0.000e+00
   3.617e-02  -2.893e-01   0.000e+00
   7.233e-02  -3.255e-01   0.000e+00
   3.617e-02  -2.893e-01   0.000e+00
   3.617e-02  -3.255e-01   0.000e+00
   7.233e-02  -3.255e-01   0.000e+00
   0.000e+00  -2.893e-01   0.000e+00
   1.966e-03  -2.913e-01   0.000e+00
   3.542e-03  -2.893e-01   0.000e+00
   1.966e-03  -2.913e-01   0.000e+00
   3.542e-03  -2.893e-01   0.000e+00
   3.617e-02  -3.255e-01   0.000e+00
   3.617e-02  -2.893e-01   0.000e+00
   1.447e-01  -3.617e-01   0.000e+00
   1.447e-01  -3.255e-01   0.000e+00
   1.241e-01  -3.411e-01   0.000e+00
   1.124e-01  -3.255e-01   0.000e+00
   1.241e-01  -3.411e-01   0.000e+00
   1.124e-01  -3.255e-01   0.000e+00
   1.085e-01  -3.255e-01   0.000e+00
   1.447e-01  -2.893e-01   0.000e+00
   1.085e-01  -2.893e-01   0.000e+00
   1.447e-01  -3.255e-01   0.000e+00
   1.085e-01  -2.893e-01   0.000e+00
   1.124e-01  -3.255e-01   0.000e+00
   1.085e-01  -3.201e-01   0.000e+00
   1.447e-01  -3.255e-01   0.000e+00
   1.124e-01  -3.255e-01   0.000e+00
   1.085e-01  -3.201e-01   0.000e+00
   1.085e-01  -3.255e-01   0.000e+00
   1.085e-01  -3.201e-01   0.000e+00
   8.586e-02  -2.893e-01   0.000e+00
   1.085e-01  -2.893e-01   0.000e+00
   7.233e-02  -2.893e-01   0.000e+00
   1.085e-01  -3.255e-01   0.000e+00
   1.085e-01  -3.201e-01   0.000e+00
   8.586e-02  -2.893e-01   0.000e+00
   2.170e-01  -3.617e-01   0.000e+00
   2.170e-01  -2.893e-01   0.000e+00
   1.447e-01  -2.893e-01   0.000e+00
   2.893e-01  -3.617e-01   0.000e+00
   2.893e-01  -2.893e-01   0.000e+00
   2.170e-01  -2.893e-01   0.000e+00
   3.617e-01  -3.617e-01   0.000e+00
   3.617e-01  -2.893e-01   0.000e+00
   2.893e-01  -2.893e-01   0.000e+00
   4.340e-01  -3.617e-01   0.000e+00
   4.340e-01  -2.893e-01   0.000e+00
   3.617e-01  -2.893e-01   0.000e+00
   4.859e-01  -3.412e-01   0.000e+00
   4.817e-01  -3.255e-01   0.000e+00
   4.702e-01  -3.255e-01   0.000e+00
   5.063e-01  -3.617e-01   0.000e+00
   5.063e-01  -3.255e-01   0.000e+00
   4.859e-01  -3.412e-01   0.000e+00
   4.817e-01  -3.255e-01   0.000e+00
   5.063e-01  -2.893e-01   0.000e+00
   4.702e-01  -2.893e-01   0.000e+00
   5.063e-01  -3.255e-01   0.000e+00
   4.817e-01  -3.255e-01   0.000e+00
   4.702e-01  -2.945e-01   0.000e+00
   4.702e-01  -3.255e-01   0.000e+00
   4.702e-01  -2.893e-01   0.000e+00
   4.817e-01  -3.255e-01   0.000e+00
   4.702e-01  -2.945e-01   0.000e+00
   5.063e-01  -3.255e-01   0.000e+00
   4.340e-01  -2.893e-01   0.000e+00
   4.702e-01  -3.255e-01   0.000e+00
   4.702e-01  -2.945e-01   0.000e+00
   4.682e-01  -2.893e-01   0.000e+00
   4.702e-01  -2.945e-01   0.000e+00
   4.682e-01  -2.893e-01   0.000e+00
   4.702e-01  -2.893e-01   0.000e+00
   5.787e-01  -3.617e-01   0.000e+00
   5.787e-01  -2.893e-01   0.000e+00
   5.063e-01  -2.893e-01   0.000e+00
   6.510e-01  -3.617e-01   0.000e+00
   6.510e-01  -2.893e-01   0.000e+00
   5.787e-01  -2.893e-01   0.000e+00
   7.233e-01  -3.617e-01   0.000e+00
   7.233e-01  -2.893e-01   0.000e+00
   6.510e-01  -2.893e-01   0.000e+00
   7.957e-01  -3.617e-01   0.000e+00
   7.957e-01  -2.893e-01   0.000e+00
   7.233e-01  -2.893e-01   0.000e+00
   8.680e-01  -3.617e-01   0.000e+00
   8.680e-01  -2.893e-01   0.000e+00
   7.957e-01  -2.893e-01   0.000e+00
   9.403e-01  -3.617e-01   0.000e+00
   9.403e-01  -2.893e-01   0.000e+00
   8.680e-01  -2.893e-01   0.000e+00
   1.013e+00  -3.617e-01   0.000e+00
   1.013e+00  -2.893e-01   0.000e+00
   9.403e-01  -2.893e-01   0.000e+00
   1.085e+00  -3.617e-01   0.000e+00
   1.085e+00  -2.893e-01   0.000e+00
   1.013e+00  -2.893e-01   0.000e+00
  -1.013e+00  -2.893e-01   0.000e+00
  -1.013e+00  -2.170e-01   0.000e+00
  -1.085e+00  -2.170e-01   0.000e+00
  -9.403e-01  -2.893e-01   0.000e+00
  -9.403e-01  -2.170e-01   0.000e+00
  -1.013e+00  -2.170e-01   0.000e+00
  -8.680e-01  -2.893e-01   0.000e+00
  -8.680e-01  -2.170e-01   0.000e+00
  -9.403e-01  -2.170e-01   0.000e+00
  -7.957e-01  -2.893e-01   0.000e+00
  -7.957e-01  -2.170e-01   0.000e+00
  -8.680e-01  -2.170e-01   0.000e+00
  -7.233e-01  -2.893e-01   0.000e+00
  -7.233e-01  -2.170e-01   0.000e+00
  -7.957e-01  -2.170e-01   0.000e+00
  -6.510e-01  -2.893e-01   0.000e+00
  -6.510e-01  -2.170e-01   0.000e+00
  -7.233e-01  -2.170e-01   0.000e+00
  -5.787e-01  -2.893e-01   0.000e+00
  -5.787e-01  -2.170e-01   0.000e+00
  -6.510e-01  -2.170e-01   0.000e+00
  -5.063e-01  -2.893e-01   0.000e+00
  -5.063e-01  -2.170e-01   0.000e+00
  -5.787e-01  -2.170e-01   0.000e+00
  -4.340e-01  -2.893e-01   0.000e+00
  -4.340e-01  -2.170e-01   0.000e+00
  -5.063e-01  -2.170e-01   0.000e+00
  -3.617e-01  -2.893e-01   0.000e+00
  -3.617e-01  -2.532e-01   0.000e+00
  -3.735e-01  -2.775e-01   0.000e+00
  -3.618e-01  -2.532e-01   0.000e+00
  -3.735e-01  -2.775e-01   0.000e+00
  -3.618e-01  -2.532e-01   0.000e+00
  -3.978e-01  -2.532e-01   0.000e+00
  -3.617e-01  -2.528e-01   0.000e+00
  -3.618e-01  -2.530e-01   0.000e+00
  -3.617e-01  -2.532e-01   0.000e+00
  -3.617e-01  -2.170e-01   0.000e+00
  -3.978e-01  -2.170e-01   0.000e+00
  -3.617e-01  -2.528e-01   0.000e+00
  -3.618e-01  -2.530e-01   0.000e+00
  -3.618e-01  -2.532e-01   0.000e+00
  -3.618e-01  -2.530e-01   0.000e+00
  -3.617e-01  -2.532e-01   0.000e+00
  -3.978e-01  -2.170e-01   0.000e+00
  -3.978e-01  -2.532e-01   0.000e+00
  -3.618e-01  -2.532e-01   0.000e+00
  -3.618e-01  -2.530e-01   0.000e+00
  -4.340e-01  -2.170e-01   0.000e+00
  -3.978e-01  -2.532e-01   0.000e+00
  -3.978e-01  -2.170e-01   0.000e+00
  -2.893e-01  -2.893e-01   0.000e+00
  -2.893e-01  -2.532e-01   0.000e+00
  -3.255e-01  -2.532e-01   0.000e+00
  -2.893e-01  -2.170e-01   0.000e+00
  -3.255e-01  -2.170e-01   0.000e+00
  -2.893e-01  -2.532e-01   0.000e+00
  -3.255e-01  -2.170e-01   0.000e+00
  -3.255e-01  -2.532e-01   0.000e+00
  -2.893e-01  -2.532e-01   0.000e+00
  -3.491e-01  -2.295e-01   0.000e+00
  -3.419e-01  -2.170e-01   0.000e+00
  -3.255e-01  -2.532e-01   0.000e+00
  -3.255e-01  -2.170e-01   0.000e+00
  -3.617e-01  -2.170e-01   0.000e+00
  -3.491e-01  -2.295e-01   0.000e+00
  -3.419e-01  -2.170e-01   0.000e+00
  -2.170e-01  -2.893e-01   0.000e+00
  -2.170e-01  -2.170e-01   0.000e+00
  -2.893e-01  -2.170e-01   0.000e+00
  -1.447e-01  -2.893e-01   0.000e+00
  -1.447e-01  -2.170e-01   0.000e+00
  -2.170e-01  -2.170e-01   0.000e+00
  -7.233e-02  -2.893e-01   0.000e+00
  -7.233e-02  -2.170e-01   0.000e+00
  -1.447e-01  -2.170e-01   0.000e+00
   0.000e+00  -2.893e-01   0.000e+00
   0.000e+00  -2.170e-01   0.000e+00
  -7.233e-02  -2.170e-01   0.000e+00
   7.233e-02  -2.735e-01   0.000e+00
   4.542e-02  -2.624e-01   0.000e+00
   7.233e-02  -2.532e-01   0.000e+00
   3.617e-02  -2.532e-01   0.000e+00
   7.233e-02  -2.893e-01   0.000e+00
   7.233e-02  -2.735e-01   0.000e+00
   4.542e-02  -2.624e-01   0.000e+00
   7.233e-02  -2.170e-01   0.000e+00
   3.617e-02  -2.170e-01   0.000e+00
   7.233e-02  -2.532e-01   0.000e+00
   3.617e-02  -2.170e-01   0.000e+00
   3.617e-02  -2.532e-01   0.000e+00
   7.233e-02  -2.532e-01   0.000e+00
   0.000e+00  -2.170e-01   0.000e+00
   3.617e-02  -2.532e-01   0.000e+00
   3.617e-02  -2.170e-01   0.000e+00
   1.447e-01  -2.893e-01   0.000e+00
   1.447e-01  -2.170e-01   0.000e+00
   7.233e-02  -2.170e-01   0.000e+00
   2.170e-01  -2.893e-01   0.000e+00
   2.170e-01  -2.170e-01   0.000e+00
   1.447e-01  -2.170e-01   0.000e+00
   2.893e-01  -2.893e-01   0.000e+00
   2.893e-01  -2.170e-01   0.000e+00
   2.170e-01  -2.170e-01   0.000e+00
   3.617e-01  -2.893e-01   0.000e+00
   3.617e-01  -2.170e-01   0.000e+00
   2.893e-01  -2.170e-01   0.000e+00
   4.340e-01  -2.893e-01   0.000e+00
   4.340e-01  -2.532e-01   0.000e+00
   3.978e-01  -2.532e-01   0.000e+00
   4.313e-01  -2.170e-01   0.000e+00
   4.340e-01  -2.217e-01   0.000e+00
   3.978e-01  -2.170e-01   0.000e+00
   4.340e-01  -2.532e-01   0.000e+00
   4.340e-01  -2.170e-01   0.000e+00
   4.313e-01  -2.170e-01   0.000e+00
   4.340e-01  -2.217e-01   0.000e+00
   3.978e-01  -2.170e-01   0.000e+00
   3.978e-01  -2.532e-01   0.000e+00
   4.340e-01  -2.532e-01   0.000e+00
   3.617e-01  -2.170e-01   0.000e+00
   3.978e-01  -2.532e-01   0.000e+00
   3.978e-01  -2.170e-01   0.000e+00
   5.063e-01  -2.893e-01   0.000e+00
   5.063e-01  -2.170e-01   0.000e+00
   4.340e-01  -2.170e-01   0.000e+00
   5.787e-01  -2.893e-01   0.000e+00
   5.787e-01  -2.170e-01   0.000e+00
   5.063e-01  -2.170e-01   0.000e+00
   6.510e-01  -2.893e-01   0.000e+00
   6.510e-01  -2.170e-01   0.000e+00
   5.787e-01  -2.170e-01   0.000e+00
   7.233e-01  -2.893e-01   0.000e+00
   7.233e-01  -2.170e-01   0.000e+00
   6.510e-01  -2.170e-01   0.000e+00
   7.957e-01  -2.893e-01   0.000e+00
   7.957e-01  -2.170e-01   0.000e+00
   7.233e-01  -2.170e-01   0.000e+00
   8.680e-01  -2.893e-01   0.000e+00
   8.680e-01  -2.170e-01   0.000e+00
   7.957e-01  -2.170e-01   0.000e+00
   9.403e-01  -2.893e-01   0.000e+00
   9.403e-01  -2.170e-01   0.000e+00
   8.680e-01  -2.170e-01   0.000e+00
   1.013e+00  -2.893e-01   0.000e+00
   1.013e+00  -2.170e-01   0.000e+00
   9.403e-01  -2.170e-01   0.000e+00
   1.085e+00  -2.893e-01   0.000e+00
   1.085e+00  -2.170e-01   0.000e+00
   1.013e+00  -2.170e-01   0.000e+00
  -1.013e+00  -2.170e-01   0.000e+00
  -1.013e+00  -1.447e-01   0.000e+00
  -1.085e+00  -1.447e-01   0.000e+00
  -9.403e-01  -2.170e-01   0.000e+00
  -9.403e-01  -1.447e-01   0.000e+00
  -1.013e+00  -1.447e-01   0.000e+00
  -8.680e-01  -2.170e-01   0.000e+00
  -8.680e-01  -1.447e-01   0.000e+00
  -9.403e-01  -1.447e-01   0.000e+00
  -7.957e-01  -2.170e-01   0.000e+00
  -7.957e-01  -1.447e-01   0.000e+00
  -8.680e-01  -1.447e-01   0.000e+00
  -7.233e-01  -2.170e-01   0.000e+00
  -7.233e-01  -1.447e-01   0.000e+00
  -7.957e-01  -1.447e-01   0.000e+00
  -6.510e-01  -2.170e-01   0.000e+00
  -6.510e-01  -1.447e-01   0.000e+00
  -7.233e-01  -1.447e-01   0.000e+00
  -5.787e-01  -2.170e-01   0.000e+00
  -5.787e-01  -1.447e-01   0.000e+00
  -6.510e-01  -1.447e-01   0.000e+00
  -5.063e-01  -2.170e-01   0.000e+00
  -5.063e-01  -1.447e-01   0.000e+00
  -5.787e-01  -1.447e-01   0.000e+00
  -4.340e-01  -2.170e-01   0.000e+00
  -4.340e-01  -1.447e-01   0.000e+00
  -5.063e-01  -1.447e-01   0.000e+00
  -3.617e-01  -2.170e-01   0.000e+00
  -3.617e-01  -1.447e-01   0.000e+00
  -4.340e-01  -1.447e-01   0.000e+00
  -2.893e-01  -2.170e-01   0.000e+00
  -2.893e-01  -1.808e-01   0.000e+00
  -3.217e-01  -1.846e-01   0.000e+00
  -3.192e-01  -1.808e-01   0.000e+00
  -3.217e-01  -1.846e-01   0.000e+00
  -3.192e-01  -1.808e-01   0.000e+00
  -3.255e-01  -1.808e-01   0.000e+00
  -2.893e-01  -1.447e-01   0.000e+00
  -2.941e-01  -1.447e-01   0.000e+00
  -3.071e-01  -1.630e-01   0.000e+00
  -2.893e-01  -1.808e-01   0.000e+00
  -2.941e-01  -1.447e-01   0.000e+00
  -3.071e-01  -1.630e-01   0.000e+00
  -3.255e-01  -1.447e-01   0.000e+00
  -3.192e-01  -1.808e-01   0.000e+00
  -3.071e-01  -1.630e-01   0.000e+00
  -2.893e-01  -1.808e-01   0.000e+00
  -3.255e-01  -1.447e-01   0.000e+00
  -3.255e-01  -1.808e-01   0.000e+00
  -3.192e-01  -1.808e-01   0.000e+00
  -3.071e-01  -1.630e-01   0.000e+00
  -3.617e-01  -1.447e-01   0.000e+00
  -3.255e-01  -1.808e-01   0.000e+00
  -3.255e-01  -1.447e-01   0.000e+00
  -2.170e-01  -2.170e-01   0.000e+00
  -2.170e-01  -1.447e-01   0.000e+00
  -2.893e-01  -1.447e-01   0.000e+00
  -1.447e-01  -2.170e-01   0.000e+00
  -1.447e-01  -1.447e-01   0.000e+00
  -2.170e-01  -1.447e-01   0.000e+00
  -7.233e-02  -2.170e-01   0.000e+00
  -7.233e-02  -1.447e-01   0.000e+00
  -1.447e-01  -1.447e-01   0.000e+00
   0.000e+00  -2.170e-01   0.000e+00
   0.000e+00  -1.447e-01   0.000e+00
  -7.233e-02  -1.447e-01   0.000e+00
   7.233e-02  -2.170e-01   0.000e+00
   7.233e-02  -1.447e-01   0.000e+00
   0.000e+00  -1.447e-01   0.000e+00
   1.447e-01  -2.170e-01   0.000e+00
   1.447e-01  -1.447e-01   0.000e+00
   7.233e-02  -1.447e-01   0.000e+00
   2.170e-01  -2.170e-01   0.000e+00
   2.170e-01  -1.447e-01   0.000e+00
   1.447e-01  -1.447e-01   0.000e+00
   2.893e-01  -2.170e-01   0.000e+00
   2.893e-01  -1.447e-01   0.000e+00
   2.170e-01  -1.447e-01   0.000e+00
   3.617e-01  -2.170e-01   0.000e+00
   3.617e-01  -1.447e-01   0.000e+00
   2.893e-01  -1.447e-01   0.000e+00
   4.267e-01  -2.097e-01   0.000e+00
   4.086e-01  -1.808e-01   0.000e+00
   3.978e-01  -1.808e-01   0.000e+00
   4.340e-01  -2.170e-01   0.000e+00
   4.340e-01  -1.808e-01   0.000e+00
   4.267e-01  -2.097e-01   0.000e+00
   4.086e-01  -1.808e-01   0.000e+00
   4.340e-01  -1.447e-01   0.000e+00
   3.978e-01  -1.447e-01   0.000e+00
   4.340e-01  -1.808e-01   0.000e+00
   4.086e-01  -1.808e-01   0.000e+00
   3.978e-01  -1.650e-01   0.000e+00
   3.978e-01  -1.808e-01   0.000e+00
   3.978e-01  -1.447e-01   0.000e+00
   4.086e-01  -1.808e-01   0.000e+00
   3.978e-01  -1.650e-01   0.000e+00
   4.340e-01  -1.808e-01   0.000e+00
   3.617e-01  -1.447e-01   0.000e+00
   3.978e-01  -1.808e-01   0.000e+00
   3.978e-01  -1.650e-01   0.000e+00
   3.835e-01  -1.447e-01   0.000e+00
   3.978e-01  -1.650e-01   0.000e+00
   3.835e-01  -1.447e-01   0.000e+00
   3.978e-01  -1.447e-01   0.000e+00
   5.063e-01  -2.170e-01   0.000e+00
   5.063e-01  -1.447e-01   0.000e+00
   4.340e-01  -1.447e-01   0.000e+00
   5.787e-01  -2.170e-01   0.000e+00
   5.787e-01  -1.447e-01   0.000e+00
   5.063e-01  -1.447e-01   0.000e+00
   6.510e-01  -2.170e-01   0.000e+00
   6.510e-01  -1.447e-01   0.000e+00
   5.787e-01  -1.447e-01   0.000e+00
   7.233e-01  -2.170e-01   0.000e+00
   7.233e-01  -1.447e-01   0.000e+00
   6.510e-01  -1.447e-01   0.000e+00
   7.957e-01  -2.170e-01   0.000e+00
   7.957e-01  -1.447e-01   0.000e+00
   7.233e-01  -1.447e-01   0.000e+00
   8.680e-01  -2.170e-01   0.000e+00
   8.680e-01  -1.447e-01   0.000e+00
   7.957e-01  -1.447e-01   0.000e+00
   9.403e-01  -2.170e-01   0.000e+00
   9.403e-01  -1.447e-01   0.000e+00
   8.680e-01  -1.447e-01   0.000e+00
   1.013e+00  -2.170e-01   0.000e+00
   1.013e+00  -1.447e-01   0.000e+00
   9.403e-01  -1.447e-01   0.000e+00
   1.085e+00  -2.170e-01   0.000e+00
   1.085e+00  -1.447e-01   0.000e+00
   1.013e+00  -1.447e-01   0.000e+00
  -1.013e+00  -1.447e-01   0.000e+00
  -1.013e+00  -7.233e-02   0.000e+00
  -1.085e+00  -7.233e-02   0.000e+00
  -9.403e-01  -1.447e-01   0.000e+00
  -9.403e-01  -7.233e-02   0.000e+00
  -1.013e+00  -7.233e-02   0.000e+00
  -8.680e-01  -1.447e-01   0.000e+00
  -8.680e-01  -7.233e-02   0.000e+00
  -9.403e-01  -7.233e-02   0.000e+00
  -7.957e-01  -1.447e-01   0.000e+00
  -7.957e-01  -7.233e-02   0.000e+00
  -8.680e-01  -7.233e-02   0.000e+00
  -7.233e-01  -1.447e-01   0.000e+00
  -7.233e-01  -7.233e-02   0.000e+00
  -7.957e-01  -7.233e-02   0.000e+00
  -6.510e-01  -1.447e-01   0.000e+00
  -6.510e-01  -7.233e-02   0.000e+00
  -7.233e-01  -7.233e-02   0.000e+00
  -5.787e-01  -1.447e-01   0.000e+00
  -5.787e-01  -7.233e-02   0.000e+00
  -6.510e-01  -7.233e-02   0.000e+00
  -5.063e-01  -1.447e-01   0.000e+00
  -5.063e-01  -7.233e-02   0.000e+00
  -5.787e-01  -7.233e-02   0.000e+00
  -4.340e-01  -1.447e-01   0.000e+00
  -4.340e-01  -7.233e-02   0.000e+00
  -5.063e-01  -7.233e-02   0.000e+00
  -3.617e-01  -1.447e-01   0.000e+00
  -3.617e-01  -7.233e-02   0.000e+00
  -4.340e-01  -7.233e-02   0.000e+00
  -2.893e-01  -1.447e-01   0.000e+00
  -2.893e-01  -1.381e-01   0.000e+00
  -2.921e-01  -1.419e-01   0.000e+00
  -2.893e-01  -1.381e-01   0.000e+00
  -2.921e-01  -1.419e-01   0.000e+00
  -2.893e-01  -1.085e-01   0.000e+00
  -3.255e-01  -1.085e-01   0.000e+00
  -2.893e-01  -7.233e-02   0.000e+00
  -3.255e-01  -7.233e-02   0.000e+00
  -2.893e-01  -1.085e-01   0.000e+00
  -3.255e-01  -7.233e-02   0.000e+00
  -3.255e-01  -1.085e-01   0.000e+00
  -2.893e-01  -1.085e-01   0.000e+00
  -3.617e-01  -7.233e-02   0.000e+00
  -3.255e-01  -1.085e-01   0.000e+00
  -3.255e-01  -7.233e-02   0.000e+00
  -2.170e-01  -1.447e-01   0.000e+00
  -2.170e-01  -1.085e-01   0.000e+00
  -2.532e-01  -1.085e-01   0.000e+00
  -2.170e-01  -7.233e-02   0.000e+00
  -2.449e-01  -7.233e-02   0.000e+00
  -2.476e-01  -7.785e-02   0.000e+00
  -2.170e-01  -1.085e-01   0.000e+00
  -2.449e-01  -7.233e-02   0.000e+00
  -2.476e-01  -7.785e-02   0.000e+00
  -2.532e-01  -7.233e-02   0.000e+00
  -2.476e-01  -7.785e-02   0.000e+00
  -2.532e-01  -8.635e-02   0.000e+00
  -2.532e-01  -1.085e-01   0.000e+00
  -2.170e-01  -1.085e-01   0.000e+00
  -2.532e-01  -7.233e-02   0.000e+00
  -2.476e-01  -7.785e-02   0.000e+00
  -2.532e-01  -8.635e-02   0.000e+00
  -2.532e-01  -8.635e-02   0.000e+00
  -2.618e-01  -9.991e-02   0.000e+00
  -2.532e-01  -1.085e-01   0.000e+00
  -2.893e-01  -7.233e-02   0.000e+00
  -2.532e-01  -8.635e-02   0.000e+00
  -2.618e-01  -9.991e-02   0.000e+00
  -2.532e-01  -7.233e-02   0.000e+00
  -1.447e-01  -1.447e-01   0.000e+00
  -1.447e-01  -7.233e-02   0.000e+00
  -2.170e-01  -7.233e-02   0.000e+00
  -7.233e-02  -1.447e-01   0.000e+00
  -7.233e-02  -7.233e-02   0.000e+00
  -1.447e-01  -7.233e-02   0.000e+00
   0.000e+00  -1.447e-01   0.000e+00
   0.000e+00  -7.233e-02   0.000e+00
  -7.233e-02  -7.233e-02   0.000e+00
   7.233e-02  -1.447e-01   0.000e+00
   7.233e-02  -7.233e-02   0.000e+00
   0.000e+00  -7.233e-02   0.000e+00
   1.447e-01  -1.447e-01   0.000e+00
   1.447e-01  -7.233e-02   0.000e+00
   7.233e-02  -7.233e-02   0.000e+00
   2.170e-01  -1.447e-01   0.000e+00
   2.170e-01  -7.233e-02   0.000e+00
   1.447e-01  -7.233e-02   0.000e+00
   2.893e-01  -1.447e-01   0.000e+00
   2.893e-01  -7.233e-02   0.000e+00
   2.170e-01  -7.233e-02   0.000e+00
   3.617e-01  -1.447e-01   0.000e+00
   3.617e-01  -1.145e-01   0.000e+00
   3.573e-01  -1.085e-01   0.000e+00
   3.255e-01  -1.085e-01   0.000e+00
   3.617e-01  -1.145e-01   0.000e+00
   3.573e-01  -1.085e-01   0.000e+00
   3.617e-01  -1.085e-01   0.000e+00
   3.344e-01  -7.233e-02   0.000e+00
   3.504e-01  -9.722e-02   0.000e+00
   3.255e-01  -7.233e-02   0.000e+00
   3.617e-01  -7.233e-02   0.000e+00
   3.344e-01  -7.233e-02   0.000e+00
   3.504e-01  -9.722e-02   0.000e+00
   3.617e-01  -1.085e-01   0.000e+00
   3.255e-01  -7.233e-02   0.000e+00
   3.255e-01  -1.085e-01   0.000e+00
   3.573e-01  -1.085e-01   0.000e+00
   3.504e-01  -9.722e-02   0.000e+00
   3.573e-01  -1.085e-01   0.000e+00
   3.504e-01  -9.722e-02   0.000e+00
   3.617e-01  -1.085e-01   0.000e+00
   2.893e-01  -7.233e-02   0.000e+00
   3.255e-01  -1.085e-01   0.000e+00
   3.255e-01  -7.233e-02   0.000e+00
   4.340e-01  -1.447e-01   0.000e+00
   4.340e-01  -7.233e-02   0.000e+00
   3.617e-01  -7.233e-02   0.000e+00
   5.063e-01  -1.447e-01   0.000e+00
   5.063e-01  -7.233e-02   0.000e+00
   4.340e-01  -7.233e-02   0.000e+00
   5.787e-01  -1.447e-01   0.000e+00
   5.787e-01  -7.233e-02   0.000e+00
   5.063e-01  -7.233e-02   0.000e+00
   6.510e-01  -1.447e-01   0.000e+00
   6.510e-01  -7.233e-02   0.000e+00
   5.787e-01  -7.233e-02   0.000e+00
   7.233e-01  -1.447e-01   0.000e+00
   7.233e-01  -7.233e-02   0.000e+00
   6.510e-01  -7.233e-02   0.000e+00
   7.957e-01  -1.447e-01   0.000e+00
   7.957e-01  -7.233e-02   0.000e+00
   7.233e-01  -7.233e-02   0.000e+00
   8.680e-01  -1.447e-01   0.000e+00
   8.680e-01  -7.233e-02   0.000e+00
   7.957e-01  -7.233e-02   0.000e+00
   9.403e-01  -1.447e-01   0.000e+00
   9.403e-01  -7.233e-02   0.000e+00
   8.680e-01  -7.233e-02   0.000e+00
   1.013e+00  -1.447e-01   0.000e+00
   1.013e+00  -7.233e-02   0.000e+00
   9.403e-01  -7.233e-02   0.000e+00
   1.085e+00  -1.447e-01   0.000e+00
   1.085e+00  -7.233e-02   0.000e+00
   1.013e+00  -7.233e-02   0.000e+00
  -1.013e+00  -7.233e-02   0.000e+00
  -1.013e+00   0.000e+00   0.000e+00
  -1.085e+00   0.000e+00   0.000e+00
  -9.403e-01  -7.233e-02   0.000e+00
  -9.403e-01   0.000e+00   0.000e+00
  -1.013e+00   0.000e+00   0.000e+00
  -8.680e-01  -7.233e-02   0.000e+00
  -8.680e-01   0.000e+00   0.000e+00
  -9.403e-01   0.000e+00   0.000e+00
  -7.957e-01  -7.233e-02   0.000e+00
  -7.957e-01   0.000e+00   0.000e+00
  -8.680e-01   0.000e+00   0.000e+00
  -7.233e-01  -7.233e-02   0.000e+00
  -7.233e-01   0.000e+00   0.000e+00
  -7.957e-01   0.000e+00   0.000e+00
  -6.510e-01  -7.233e-02   0.000e+00
  -6.510e-01   0.000e+00   0.000e+00
  -7.233e-01   0.000e+00   0.000e+00
  -5.787e-01  -7.233e-02   0.000e+00
  -5.787e-01  -0.000e+00   0.000e+00
  -6.510e-01   0.000e+00   0.000e+00
  -5.063e-01  -7.233e-02   0.000e+00
  -5.063e-01   0.000e+00   0.000e+00
  -5.787e-01  -0.000e+00   0.000e+00
  -4.340e-01  -7.233e-02   0.000e+00
  -4.340e-01  -0.000e+00   0.000e+00
  -5.063e-01   0.000e+00   0.000e+00
  -3.617e-01  -7.233e-02   0.000e+00
  -3.617e-01   0.000e+00   0.000e+00
  -4.340e-01  -0.000e+00   0.000e+00
  -2.893e-01  -7.233e-02   0.000e+00
  -2.893e-01  -3.617e-02   0.000e+00
  -3.255e-01  -3.617e-02   0.000e+00
  -2.893e-01  -0.000e+00   0.000e+00
  -3.255e-01   0.000e+00   0.000e+00
  -2.893e-01  -1.804e-02   0.000e+00
  -3.162e-01  -9.262e-03   0.000e+00
  -2.893e-01  -1.804e-02   0.000e+00
  -3.162e-01  -9.262e-03   0.000e+00
  -2.893e-01  -3.617e-02   0.000e+00
  -3.255e-01   0.000e+00   0.000e+00
  -3.162e-01  -9.262e-03   0.000e+00
  -3.255e-01  -6.199e-03   0.000e+00
  -3.162e-01  -9.262e-03   0.000e+00
  -3.255e-01  -6.199e-03   0.000e+00
  -3.255e-01  -3.617e-02   0.000e+00
  -2.893e-01  -3.617e-02   0.000e+00
  -3.255e-01  -6.199e-03   0.000e+00
  -3.442e-01   0.000e+00   0.000e+00
  -3.255e-01   0.000e+00   0.000e+00
  -3.617e-01   0.000e+00   0.000e+00
  -3.255e-01  -3.617e-02   0.000e+00
  -3.255e-01  -6.199e-03   0.000e+00
  -3.442e-01   0.000e+00   0.000e+00
  -2.170e-01  -7.233e-02   0.000e+00
  -2.170e-01  -0.000e+00   0.000e+00
  -2.893e-01  -0.000e+00   0.000e+00
  -1.447e-01  -7.233e-02   0.000e+00
  -1.447e-01   0.000e+00   0.000e+00
  -2.170e-01  -0.000e+00   0.000e+00
  -7.233e-02  -7.233e-02   0.000e+00
  -7.233e-02   0.000e+00   0.000e+00
  -1.447e-01   0.000e+00   0.000e+00
   0.000e+00  -7.233e-02   0.000e+00
   0.000e+00   0.000e+00   0.000e+00
  -7.233e-02   0.000e+00   0.000e+00
   7.233e-02  -7.233e-02   0.000e+00
   7.233e-02   0.000e+00   0.000e+00
   0.000e+00   0.000e+00   0.000e+00
   1.447e-01  -7.233e-02   0.000e+00
   1.447e-01   0.000e+00   0.000e+00
   7.233e-02   0.000e+00   0.000e+00
   2.170e-01  -7.233e-02   0.000e+00
   2.170e-01  -0.000e+00   0.000e+00
   1.447e-01   0.000e+00   0.000e+00
   2.893e-01  -7.233e-02   0.000e+00
   2.893e-01   0.000e+00   0.000e+00
   2.170e-01  -0.000e+00   0.000e+00
   3.359e-01  -4.653e-02   0.000e+00
   3.424e-01  -3.617e-02   0.000e+00
   3.255e-01  -3.617e-02   0.000e+00
   3.617e-01  -7.233e-02   0.000e+00
   3.617e-01  -3.617e-02   0.000e+00
   3.359e-01  -4.653e-02   0.000e+00
   3.424e-01  -3.617e-02   0.000e+00
   3.617e-01   0.000e+00   0.000e+00
   3.255e-01   0.000e+00   0.000e+00
   3.617e-01  -2.438e-02   0.000e+00
   3.535e-01  -2.800e-02   0.000e+00
   3.617e-01  -2.438e-02   0.000e+00
   3.535e-01  -2.800e-02   0.000e+00
   3.617e-01  -3.617e-02   0.000e+00
   3.255e-01   0.000e+00   0.000e+00
   3.255e-01  -3.617e-02   0.000e+00
   3.424e-01  -3.617e-02   0.000e+00
   3.535e-01  -2.800e-02   0.000e+00
   3.424e-01  -3.617e-02   0.000e+00
   3.535e-01  -2.800e-02   0.000e+00
   3.617e-01  -3.617e-02   0.000e+00
   2.893e-01   0.000e+00   0.000e+00
   3.255e-01  -3.617e-02   0.000e+00
   3.255e-01   0.000e+00   0.000e+00
   4.340e-01  -7.233e-02   0.000e+00
   4.340e-01  -3.617e-02   0.000e+00
   3.978e-01  -3.617e-02   0.000e+00
   4.339e-01   0.000e+00   0.000e+00
   4.067e-01  -8.854e-03   0.000e+00
   3.978e-01   0.000e+00   0.000e+00
   4.340e-01   0.000e+00   0.000e+00
   4.339e-01   0.000e+00   0.000e+00
   4.067e-01  -8.854e-03   0.000e+00
   4.340e-01  -3.617e-02   0.000e+00
   3.978e-01   0.000e+00   0.000e+00
   4.067e-01  -8.854e-03   0.000e+00
   3.978e-01  -1.172e-02   0.000e+00
   4.067e-01  -8.854e-03   0.000e+00
   3.978e-01  -1.172e-02   0.000e+00
   3.978e-01  -3.617e-02   0.000e+00
   4.340e-01  -3.617e-02   0.000e+00
   3.617e-01   0.000e+00   0.000e+00
   3.978e-01  -1.172e-02   0.000e+00
   3.795e-01  -1.786e-02   0.000e+00
   3.978e-01   0.000e+00   0.000e+00
   3.978e-01  -1.172e-02   0.000e+00
   3.795e-01  -1.786e-02   0.000e+00
   3.978e-01  -3.617e-02   0.000e+00
   5.063e-01  -7.233e-02   0.000e+00
   5.063e-01   0.000e+00   0.000e+00
   4.340e-01   0.000e+00   0.000e+00
   5.787e-01  -7.233e-02   0.000e+00
   5.787e-01  -0.000e+00   0.000e+00
   5.063e-01   0.000e+00   0.000e+00
   6.510e-01  -7.233e-02   0.000e+00
   6.510e-01  -0.000e+00   0.000e+00
   5.787e-01  -0.000e+00   0.000e+00
   7.233e-01  -7.233e-02   0.000e+00
   7.233e-01   0.000e+00   0.000e+00
   6.510e-01  -0.000e+00   0.000e+00
   7.957e-01  -7.233e-02   0.000e+00
   7.957e-01   0.000e+00   0.000e+00
   7.233e-01   0.000e+00   0.000e+00
   8.680e-01  -7.233e-02   0.000e+00
   8.680e-01   0.000e+00   0.000e+00
   7.957e-01   0.000e+00   0.000e+00
   9.403e-01  -7.233e-02   0.000e+00
   9.403e-01  -0.000e+00   0.000e+00
   8.680e-01   0.000e+00   0.000e+00
   1.013e+00  -7.233e-02   0.000e+00
   1.013e+00  -0.000e+00   0.000e+00
   9.403e-01  -0.000e+00   0.000e+00
   1.085e+00  -7.233e-02   0.000e+00
   1.085e+00   0.000e+00   0.000e+00
   1.013e+00  -0.000e+00   0.000e+00
  -1.013e+00   0.000e+00   0.000e+00
  -1.013e+00   7.233e-02   0.000e+00
  -1.085e+00   7.233e-02   0.000e+00
  -9.403e-01   0.000e+00   0.000e+00
  -9.403e-01   7.233e-02   0.000e+00
  -1.013e+00   7.233e-02   0.000e+00
  -8.680e-01   0.000e+00   0.000e+00
  -8.680e-01   7.233e-02   0.000e+00
  -9.403e-01   7.233e-02   0.000e+00
  -7.957e-01   0.000e+00   0.000e+00
  -7.957e-01   7.233e-02   0.000e+00
  -8.680e-01   7.233e-02   0.000e+00
  -7.233e-01   0.000e+00   0.000e+00
  -7.233e-01   7.233e-02   0.000e+00
  -7.957e-01   7.233e-02   0.000e+00
  -6.510e-01   0.000e+00   0.000e+00
  -6.510e-01   7.233e-02   0.000e+00
  -7.233e-01   7.233e-02   0.000e+00
  -5.787e-01  -0.000e+00   0.000e+00
  -5.787e-01   7.233e-02   0.000e+00
  -6.510e-01   7.233e-02   0.000e+00
  -5.063e-01   0.000e+00   0.000e+00
  -5.063e-01   7.233e-02   0.000e+00
  -5.787e-01   7.233e-02   0.000e+00
  -4.340e-01   3.457e-02   0.000e+00
  -4.373e-01   3.617e-02   0.000e+00
  -4.340e-01   3.617e-02   0.000e+00
  -4.340e-01  -0.000e+00   0.000e+00
  -4.340e-01   3.457e-02   0.000e+00
  -4.373e-01   3.617e-02   0.000e+00
  -4.702e-01   3.617e-02   0.000e+00
  -4.340e-01   7.233e-02   0.000e+00
  -4.702e-01   7.233e-02   0.000e+00
  -4.340e-01   3.617e-02   0.000e+00
  -4.702e-01   7.233e-02   0.000e+00
  -4.373e-01   3.617e-02   0.000e+00
  -4.702e-01   5.250e-02   0.000e+00
  -4.340e-01   3.617e-02   0.000e+00
  -4.373e-01   3.617e-02   0.000e+00
  -4.702e-01   5.250e-02   0.000e+00
  -4.702e-01   3.617e-02   0.000e+00
  -4.702e-01   5.250e-02   0.000e+00
  -5.042e-01   7.233e-02   0.000e+00
  -4.702e-01   7.233e-02   0.000e+00
  -5.063e-01   7.233e-02   0.000e+00
  -4.702e-01   3.617e-02   0.000e+00
  -4.702e-01   5.250e-02   0.000e+00
  -5.042e-01   7.233e-02   0.000e+00
  -3.617e-01   5.873e-03   0.000e+00
  -3.711e-01   9.424e-03   0.000e+00
  -3.617e-01   3.617e-02   0.000e+00
  -3.978e-01   3.617e-02   0.000e+00
  -3.617e-01   0.000e+00   0.000e+00
  -3.617e-01   5.873e-03   0.000e+00
  -3.711e-01   9.424e-03   0.000e+00
  -3.617e-01   7.233e-02   0.000e+00
  -3.978e-01   7.233e-02   0.000e+00
  -3.617e-01   3.617e-02   0.000e+00
  -3.978e-01   7.233e-02   0.000e+00
  -3.978e-01   3.617e-02   0.000e+00
  -3.617e-01   3.617e-02   0.000e+00
  -4.340e-01   7.233e-02   0.000e+00
  -3.978e-01   3.617e-02   0.000e+00
  -3.978e-01   7.233e-02   0.000e+00
  -2.893e-01  -0.000e+00   0.000e+00
  -2.893e-01   7.233e-02   0.000e+00
  -3.617e-01   7.233e-02   0.000e+00
  -2.170e-01  -0.000e+00   0.000e+00
  -2.170e-01   7.233e-02   0.000e+00
  -2.893e-01   7.233e-02   0.000e+00
  -1.447e-01   0.000e+00   0.000e+00
  -1.447e-01   7.233e-02   0.000e+00
  -2.170e-01   7.233e-02   0.000e+00
  -7.233e-02   0.000e+00   0.000e+00
  -7.233e-02   7.233e-02   0.000e+00
  -1.447e-01   7.233e-02   0.000e+00
   0.000e+00   0.000e+00   0.000e+00
   0.000e+00   7.233e-02   0.000e+00
  -7.233e-02   7.233e-02   0.000e+00
   7.233e-02   0.000e+00   0.000e+00
   7.233e-02   7.233e-02   0.000e+00
   0.000e+00   7.233e-02   0.000e+00
   1.447e-01   0.000e+00   0.000e+00
   1.447e-01   7.233e-02   0.000e+00
   7.233e-02   7.233e-02   0.000e+00
   2.170e-01  -0.000e+00   0.000e+00
   2.170e-01   7.233e-02   0.000e+00
   1.447e-01   7.233e-02   0.000e+00
   2.893e-01   0.000e+00   0.000e+00
   2.893e-01   7.233e-02   0.000e+00
   2.170e-01   7.233e-02   0.000e+00
   3.617e-01   0.000e+00   0.000e+00
   3.617e-01   7.233e-02   0.000e+00
   2.893e-01   7.233e-02   0.000e+00
   4.340e-01   3.866e-05   0.000e+00
   4.340e-01   2.905e-05   0.000e+00
   4.340e-01   3.617e-02   0.000e+00
   3.978e-01   3.617e-02   0.000e+00
   4.340e-01   0.000e+00   0.000e+00
   4.340e-01   3.866e-05   0.000e+00
   4.340e-01   2.905e-05   0.000e+00
   4.340e-01   7.233e-02   0.000e+00
   3.978e-01   7.233e-02   0.000e+00
   4.340e-01   3.617e-02   0.000e+00
   3.978e-01   7.233e-02   0.000e+00
   3.978e-01   3.617e-02   0.000e+00
   4.340e-01   3.617e-02   0.000e+00
   3.617e-01   7.233e-02   0.000e+00
   3.978e-01   3.617e-02   0.000e+00
   3.978e-01   7.233e-02   0.000e+00
   5.063e-01   2.707e-02   0.000e+00
   4.871e-01   1.924e-02   0.000e+00
   5.063e-01   3.617e-02   0.000e+00
   4.702e-01   3.617e-02   0.000e+00
   5.063e-01   0.000e+00   0.000e+00
   5.063e-01   2.707e-02   0.000e+00
   4.871e-01   1.924e-02   0.000e+00
   5.063e-01   7.233e-02   0.000e+00
   4.702e-01   7.233e-02   0.000e+00
   5.063e-01   3.617e-02   0.000e+00
   4.702e-01   7.233e-02   0.000e+00
   4.702e-01   3.617e-02   0.000e+00
   5.063e-01   3.617e-02   0.000e+00
   4.340e-01   7.233e-02   0.000e+00
   4.702e-01   3.617e-02   0.000e+00
   4.702e-01   7.233e-02   0.000e+00
   5.787e-01  -0.000e+00   0.000e+00
   5.787e-01   3.617e-02   0.000e+00
   5.425e-01   3.617e-02   0.000e+00
   5.787e-01   7.233e-02   0.000e+00
   5.425e-01   7.233e-02   0.000e+00
   5.787e-01   6.318e-02   0.000e+00
   5.614e-01   5.344e-02   0.000e+00
   5.787e-01   6.318e-02   0.000e+00
   5.614e-01   5.344e-02   0.000e+00
   5.787e-01   3.617e-02   0.000e+00
   5.425e-01   7.233e-02   0.000e+00
   5.614e-01   5.344e-02   0.000e+00
   5.425e-01   4.366e-02   0.000e+00
   5.614e-01   5.344e-02   0.000e+00
   5.425e-01   4.366e-02   0.000e+00
   5.425e-01   3.617e-02   0.000e+00
   5.787e-01   3.617e-02   0.000e+00
   5.063e-01   7.233e-02   0.000e+00
   5.425e-01   4.366e-02   0.000e+00
   5.375e-01   4.119e-02   0.000e+00
   5.425e-01   7.233e-02   0.000e+00
   5.425e-01   4.366e-02   0.000e+00
   5.375e-01   4.119e-02   0.000e+00
   5.425e-01   3.617e-02   0.000e+00
   6.510e-01  -0.000e+00   0.000e+00
   6.510e-01   3.617e-02   0.000e+00
   6.148e-01   3.617e-02   0.000e+00
   6.510e-01   7.233e-02   0.000e+00
   6.148e-01   7.233e-02   0.000e+00
   6.510e-01   3.617e-02   0.000e+00
   6.148e-01   7.233e-02   0.000e+00
   6.148e-01   3.617e-02   0.000e+00
   6.510e-01   3.617e-02   0.000e+00
   5.787e-01   7.233e-02   0.000e+00
   5.844e-01   6.657e-02   0.000e+00
   5.933e-01   7.233e-02   0.000e+00
   5.844e-01   6.657e-02   0.000e+00
   5.933e-01   7.233e-02   0.000e+00
   6.148e-01   3.617e-02   0.000e+00
   6.148e-01   7.233e-02   0.000e+00
   7.233e-01   0.000e+00   0.000e+00
   7.233e-01   7.233e-02   0.000e+00
   6.510e-01   7.233e-02   0.000e+00
   7.957e-01   0.000e+00   0.000e+00
   7.957e-01   7.233e-02   0.000e+00
   7.233e-01   7.233e-02   0.000e+00
   8.680e-01   0.000e+00   0.000e+00
   8.680e-01   7.233e-02   0.000e+00
   7.957e-01   7.233e-02   0.000e+00
   9.403e-01  -0.000e+00   0.000e+00
   9.403e-01   7.233e-02   0.000e+00
   8.680e-01   7.233e-02   0.000e+00
   1.013e+00  -0.000e+00   0.000e+00
   1.013e+00   7.233e-02   0.000e+00
   9.403e-01   7.233e-02   0.000e+00
   1.085e+00   0.000e+00   0.000e+00
   1.085e+00   7.233e-02   0.000e+00
   1.013e+00   7.233e-02   0.000e+00
  -1.013e+00   7.233e-02   0.000e+00
  -1.013e+00   1.447e-01   0.000e+00
  -1.085e+00   1.447e-01   0.000e+00
  -9.403e-01   7.233e-02   0.000e+00
  -9.403e-01   1.447e-01   0.000e+00
  -1.013e+00   1.447e-01   0.000e+00
  -8.680e-01   7.233e-02   0.000e+00
  -8.680e-01   1.447e-01   0.000e+00
  -9.403e-01   1.447e-01   0.000e+00
  -7.957e-01   7.233e-02   0.000e+00
  -7.957e-01   1.447e-01   0.000e+00
  -8.680e-01   1.447e-01   0.000e+00
  -7.233e-01   7.233e-02   0.000e+00
  -7.233e-01   1.447e-01   0.000e+00
  -7.957e-01   1.447e-01   0.000e+00
  -6.510e-01   7.233e-02   0.000e+00
  -6.510e-01   1.447e-01   0.000e+00
  -7.233e-01   1.447e-01   0.000e+00
  -5.787e-01   7.233e-02   0.000e+00
  -5.787e-01   1.085e-01   0.000e+00
  -6.148e-01   1.085e-01   0.000e+00
  -5.787e-01   1.447e-01   0.000e+00
  -5.882e-01   1.447e-01   0.000e+00
  -5.787e-01   1.336e-01   0.000e+00
  -5.882e-01   1.447e-01   0.000e+00
  -5.787e-01   1.336e-01   0.000e+00
  -6.148e-01   1.447e-01   0.000e+00
  -5.787e-01   1.085e-01   0.000e+00
  -6.148e-01   1.447e-01   0.000e+00
  -6.148e-01   1.085e-01   0.000e+00
  -5.787e-01   1.085e-01   0.000e+00
  -6.510e-01   1.447e-01   0.000e+00
  -6.148e-01   1.085e-01   0.000e+00
  -6.148e-01   1.447e-01   0.000e+00
  -5.063e-01   7.365e-02   0.000e+00
  -5.112e-01   7.725e-02   0.000e+00
  -5.063e-01   1.085e-01   0.000e+00
  -5.425e-01   1.085e-01   0.000e+00
  -5.063e-01   7.233e-02   0.000e+00
  -5.063e-01   7.365e-02   0.000e+00
  -5.112e-01   7.725e-02   0.000e+00
  -5.063e-01   1.447e-01   0.000e+00
  -5.425e-01   1.447e-01   0.000e+00
  -5.063e-01   1.085e-01   0.000e+00
  -5.425e-01   1.447e-01   0.000e+00
  -5.425e-01   1.085e-01   0.000e+00
  -5.063e-01   1.085e-01   0.000e+00
  -5.787e-01   1.447e-01   0.000e+00
  -5.425e-01   1.085e-01   0.000e+00
  -5.425e-01   1.447e-01   0.000e+00
  -4.340e-01   7.233e-02   0.000e+00
  -4.340e-01   1.447e-01   0.000e+00
  -5.063e-01   1.447e-01   0.000e+00
  -3.617e-01   7.233e-02   0.000e+00
  -3.617e-01   1.447e-01   0.000e+00
  -4.340e-01   1.447e-01   0.000e+00
  -2.893e-01   7.233e-02   0.000e+00
  -2.893e-01   1.447e-01   0.000e+00
  -3.617e-01   1.447e-01   0.000e+00
  -2.170e-01   7.233e-02   0.000e+00
  -2.170e-01   1.447e-01   0.000e+00
  -2.893e-01   1.447e-01   0.000e+00
  -1.447e-01   7.233e-02   0.000e+00
  -1.447e-01   1.447e-01   0.000e+00
  -2.170e-01   1.447e-01   0.000e+00
  -7.233e-02   7.233e-02   0.000e+00
  -7.233e-02   1.447e-01   0.000e+00
  -1.447e-01   1.447e-01   0.000e+00
   0.000e+00   7.233e-02   0.000e+00
   0.000e+00   1.447e-01   0.000e+00
  -7.233e-02   1.447e-01   0.000e+00
   7.233e-02   7.233e-02   0.000e+00
   7.233e-02   1.447e-01   0.000e+00
   0.000e+00   1.447e-01   0.000e+00
   1.447e-01   7.233e-02   0.000e+00
   1.447e-01   1.447e-01   0.000e+00
   7.233e-02   1.447e-01   0.000e+00
   2.170e-01   7.233e-02   0.000e+00
   2.170e-01   1.447e-01   0.000e+00
   1.447e-01   1.447e-01   0.000e+00
   2.893e-01   7.233e-02   0.000e+00
   2.893e-01   1.447e-01   0.000e+00
   2.170e-01   1.447e-01   0.000e+00
   3.617e-01   7.233e-02   0.000e+00
   3.617e-01   1.447e-01   0.000e+00
   2.893e-01   1.447e-01   0.000e+00
   4.340e-01   7.233e-02   0.000e+00
   4.340e-01   1.447e-01   0.000e+00
   3.617e-01   1.447e-01   0.000e+00
   5.063e-01   7.233e-02   0.000e+00
   5.063e-01   1.447e-01   0.000e+00
   4.340e-01   1.447e-01   0.000e+00
   5.787e-01   7.233e-02   0.000e+00
   5.787e-01   1.447e-01   0.000e+00
   5.063e-01   1.447e-01   0.000e+00
   6.274e-01   9.596e-02   0.000e+00
   6.424e-01   1.085e-01   0.000e+00
   6.148e-01   1.085e-01   0.000e+00
   6.510e-01   7.233e-02   0.000e+00
   6.510e-01   1.085e-01   0.000e+00
   6.274e-01   9.596e-02   0.000e+00
   6.424e-01   1.085e-01   0.000e+00
   6.510e-01   1.447e-01   0.000e+00
   6.148e-01   1.447e-01   0.000e+00
   6.510e-01   1.162e-01   0.000e+00
   6.471e-01   1.124e-01   0.000e+00
   6.510e-01   1.162e-01   0.000e+00
   6.471e-01   1.124e-01   0.000e+00
   6.510e-01   1.085e-01   0.000e+00
   6.148e-01   1.447e-01   0.000e+00
   6.148e-01   1.085e-01   0.000e+00
   6.424e-01   1.085e-01   0.000e+00
   6.471e-01   1.124e-01   0.000e+00
   6.424e-01   1.085e-01   0.000e+00
   6.471e-01   1.124e-01   0.000e+00
   6.510e-01   1.085e-01   0.000e+00
   5.787e-01   1.447e-01   0.000e+00
   6.148e-01   1.085e-01   0.000e+00
   6.148e-01   1.447e-01   0.000e+00
   7.233e-01   7.233e-02   0.000e+00
   7.233e-01   1.085e-01   0.000e+00
   6.872e-01   1.085e-01   0.000e+00
   7.233e-01   1.447e-01   0.000e+00
   6.872e-01   1.447e-01   0.000e+00
   7.233e-01   1.085e-01   0.000e+00
   6.872e-01   1.447e-01   0.000e+00
   6.872e-01   1.085e-01   0.000e+00
   7.233e-01   1.085e-01   0.000e+00
   6.510e-01   1.447e-01   0.000e+00
   6.654e-01   1.303e-01   0.000e+00
   6.777e-01   1.447e-01   0.000e+00
   6.654e-01   1.303e-01   0.000e+00
   6.777e-01   1.447e-01   0.000e+00
   6.872e-01   1.085e-01   0.000e+00
   6.872e-01   1.447e-01   0.000e+00
   7.957e-01   7.233e-02   0.000e+00
   7.957e-01   1.447e-01   0.000e+00
   7.233e-01   1.447e-01   0.000e+00
   8.680e-01   7.233e-02   0.000e+00
   8.680e-01   1.447e-01   0.000e+00
   7.957e-01   1.447e-01   0.000e+00
   9.403e-01   7.233e-02   0.000e+00
   9.403e-01   1.447e-01   0.000e+00
   8.680e-01   1.447e-01   0.000e+00
   1.013e+00   7.233e-02   0.000e+00
   1.013e+00   1.447e-01   0.000e+00
   9.403e-01   1.447e-01   0.000e+00
   1.085e+00   7.233e-02   0.000e+00
   1.085e+00   1.447e-01   0.000e+00
   1.013e+00   1.447e-01   0.000e+00
  -1.013e+00   1.447e-01   0.000e+00
  -1.013e+00   2.170e-01   0.000e+00
  -1.085e+00   2.170e-01   0.000e+00
  -9.403e-01   1.447e-01   0.000e+00
  -9.403e-01   2.170e-01   0.000e+00
  -1.013e+00   2.170e-01   0.000e+00
  -8.680e-01   1.447e-01   0.000e+00
  -8.680e-01   2.170e-01   0.000e+00
  -9.403e-01   2.170e-01   0.000e+00
  -7.957e-01   1.447e-01   0.000e+00
  -7.957e-01   2.170e-01   0.000e+00
  -8.680e-01   2.170e-01   0.000e+00
  -7.233e-01   1.447e-01   0.000e+00
  -7.233e-01   2.170e-01   0.000e+00
  -7.957e-01   2.170e-01   0.000e+00
  -6.510e-01   1.447e-01   0.000e+00
  -6.510e-01   2.170e-01   0.000e+00
  -7.233e-01   2.170e-01   0.000e+00
  -5.787e-01   1.447e-01   0.000e+00
  -5.787e-01   1.808e-01   0.000e+00
  -6.056e-01   1.716e-01   0.000e+00
  -6.119e-01   1.808e-01   0.000e+00
  -6.056e-01   1.716e-01   0.000e+00
  -6.119e-01   1.808e-01   0.000e+00
  -6.148e-01   1.808e-01   0.000e+00
  -5.787e-01   2.170e-01   0.000e+00
  -6.148e-01   2.170e-01   0.000e+00
  -5.787e-01   1.808e-01   0.000e+00
  -6.148e-01   2.170e-01   0.000e+00
  -6.119e-01   1.808e-01   0.000e+00
  -6.148e-01   1.890e-01   0.000e+00
  -5.787e-01   1.808e-01   0.000e+00
  -6.119e-01   1.808e-01   0.000e+00
  -6.148e-01   1.890e-01   0.000e+00
  -6.148e-01   1.808e-01   0.000e+00
  -6.148e-01   1.890e-01   0.000e+00
  -6.239e-01   2.170e-01   0.000e+00
  -6.148e-01   2.170e-01   0.000e+00
  -6.510e-01   2.170e-01   0.000e+00
  -6.148e-01   1.808e-01   0.000e+00
  -6.148e-01   1.890e-01   0.000e+00
  -6.239e-01   2.170e-01   0.000e+00
  -5.063e-01   1.447e-01   0.000e+00
  -5.063e-01   2.170e-01   0.000e+00
  -5.787e-01   2.170e-01   0.000e+00
  -4.340e-01   1.447e-01   0.000e+00
  -4.340e-01   2.170e-01   0.000e+00
  -5.063e-01   2.170e-01   0.000e+00
  -3.617e-01   1.447e-01   0.000e+00
  -3.617e-01   2.170e-01   0.000e+00
  -4.340e-01   2.170e-01   0.000e+00
  -2.893e-01   1.447e-01   0.000e+00
  -2.893e-01   2.170e-01   0.000e+00
  -3.617e-01   2.170e-01   0.000e+00
  -2.170e-01   1.447e-01   0.000e+00
  -2.170e-01   2.170e-01   0.000e+00
  -2.893e-01   2.170e-01   0.000e+00
  -1.447e-01   1.447e-01   0.000e+00
  -1.447e-01   2.170e-01   0.000e+00
  -2.170e-01   2.170e-01   0.000e+00
  -7.233e-02   1.447e-01   0.000e+00
  -7.233e-02   2.170e-01   0.000e+00
  -1.447e-01   2.170e-01   0.000e+00
   0.000e+00   1.447e-01   0.000e+00
   0.000e+00   2.170e-01   0.000e+00
  -7.233e-02   2.170e-01   0.000e+00
   7.233e-02   1.447e-01   0.000e+00
   7.233e-02   2.170e-01   0.000e+00
   0.000e+00   2.170e-01   0.000e+00
   1.447e-01   1.447e-01   0.000e+00
   1.447e-01   2.170e-01   0.000e+00
   7.233e-02   2.170e-01   0.000e+00
   2.170e-01   1.447e-01   0.000e+00
   2.170e-01   2.170e-01   0.000e+00
   1.447e-01   2.170e-01   0.000e+00
   2.893e-01   1.447e-01   0.000e+00
   2.893e-01   2.170e-01   0.000e+00
   2.170e-01   2.170e-01   0.000e+00
   3.617e-01   1.447e-01   0.000e+00
   3.617e-01   2.170e-01   0.000e+00
   2.893e-01   2.170e-01   0.000e+00
   4.340e-01   1.447e-01   0.000e+00
   4.340e-01   2.170e-01   0.000e+00
   3.617e-01   2.170e-01   0.000e+00
   5.063e-01   1.447e-01   0.000e+00
   5.063e-01   2.170e-01   0.000e+00
   4.340e-01   2.170e-01   0.000e+00
   5.787e-01   1.447e-01   0.000e+00
   5.787e-01   2.170e-01   0.000e+00
   5.063e-01   2.170e-01   0.000e+00
   6.510e-01   1.447e-01   0.000e+00
   6.510e-01   2.170e-01   0.000e+00
   5.787e-01   2.170e-01   0.000e+00
   6.964e-01   1.716e-01   0.000e+00
   7.012e-01   1.808e-01   0.000e+00
   6.872e-01   1.808e-01   0.000e+00
   7.233e-01   1.447e-01   0.000e+00
   7.233e-01   1.808e-01   0.000e+00
   6.964e-01   1.716e-01   0.000e+00
   7.012e-01   1.808e-01   0.000e+00
   7.133e-01   2.170e-01   0.000e+00
   7.075e-01   1.966e-01   0.000e+00
   6.872e-01   2.170e-01   0.000e+00
   7.233e-01   2.170e-01   0.000e+00
   7.133e-01   2.170e-01   0.000e+00
   7.075e-01   1.966e-01   0.000e+00
   7.233e-01   1.808e-01   0.000e+00
   6.872e-01   2.170e-01   0.000e+00
   6.872e-01   1.808e-01   0.000e+00
   7.012e-01   1.808e-01   0.000e+00
   7.075e-01   1.966e-01   0.000e+00
   7.012e-01   1.808e-01   0.000e+00
   7.075e-01   1.966e-01   0.000e+00
   7.233e-01   1.808e-01   0.000e+00
   6.510e-01   2.170e-01   0.000e+00
   6.872e-01   1.808e-01   0.000e+00
   6.872e-01   2.170e-01   0.000e+00
   7.957e-01   1.447e-01   0.000e+00
   7.957e-01   2.170e-01   0.000e+00
   7.233e-01   2.170e-01   0.000e+00
   8.680e-01   1.447e-01   0.000e+00
   8.680e-01   2.170e-01   0.000e+00
   7.957e-01   2.170e-01   0.000e+00
   9.403e-01   1.447e-01   0.000e+00
   9.403e-01   2.170e-01   0.000e+00
   8.680e-01   2.170e-01   0.000e+00
   1.013e+00   1.447e-01   0.000e+00
   1.013e+00   2.170e-01   0.000e+00
   9.403e-01   2.170e-01   0.000e+00
   1.085e+00   1.447e-01   0.000e+00
   1.085e+00   2.170e-01   0.000e+00
   1.013e+00   2.170e-01   0.000e+00
  -1.013e+00   2.170e-01   0.000e+00
  -1.013e+00   2.893e-01   0.000e+00
  -1.085e+00   2.893e-01   0.000e+00
  -9.403e-01   2.170e-01   0.000e+00
  -9.403e-01   2.893e-01   0.000e+00
  -1.013e+00   2.893e-01   0.000e+00
  -8.680e-01   2.170e-01   0.000e+00
  -8.680e-01   2.893e-01   0.000e+00
  -9.403e-01   2.893e-01   0.000e+00
  -7.957e-01   2.170e-01   0.000e+00
  -7.957e-01   2.893e-01   0.000e+00
  -8.680e-01   2.893e-01   0.000e+00
  -7.233e-01   2.170e-01   0.000e+00
  -7.233e-01   2.893e-01   0.000e+00
  -7.957e-01   2.893e-01   0.000e+00
  -6.510e-01   2.170e-01   0.000e+00
  -6.510e-01   2.893e-01   0.000e+00
  -7.233e-01   2.893e-01   0.000e+00
  -5.787e-01   2.170e-01   0.000e+00
  -5.787e-01   2.532e-01   0.000e+00
  -6.148e-01   2.532e-01   0.000e+00
  -5.787e-01   2.893e-01   0.000e+00
  -6.049e-01   2.893e-01   0.000e+00
  -6.095e-01   2.840e-01   0.000e+00
  -5.787e-01   2.532e-01   0.000e+00
  -6.049e-01   2.893e-01   0.000e+00
  -6.095e-01   2.840e-01   0.000e+00
  -6.148e-01   2.893e-01   0.000e+00
  -6.095e-01   2.840e-01   0.000e+00
  -6.148e-01   2.721e-01   0.000e+00
  -6.148e-01   2.532e-01   0.000e+00
  -5.787e-01   2.532e-01   0.000e+00
  -6.148e-01   2.893e-01   0.000e+00
  -6.095e-01   2.840e-01   0.000e+00
  -6.148e-01   2.721e-01   0.000e+00
  -6.148e-01   2.721e-01   0.000e+00
  -6.211e-01   2.595e-01   0.000e+00
  -6.148e-01   2.532e-01   0.000e+00
  -6.510e-01   2.893e-01   0.000e+00
  -6.148e-01   2.721e-01   0.000e+00
  -6.211e-01   2.595e-01   0.000e+00
  -6.148e-01   2.893e-01   0.000e+00
  -5.063e-01   2.170e-01   0.000e+00
  -5.063e-01   2.893e-01   0.000e+00
  -5.787e-01   2.893e-01   0.000e+00
  -4.340e-01   2.170e-01   0.000e+00
  -4.340e-01   2.893e-01   0.000e+00
  -5.063e-01   2.893e-01   0.000e+00
  -3.617e-01   2.170e-01   0.000e+00
  -3.617e-01   2.893e-01   0.000e+00
  -4.340e-01   2.893e-01   0.000e+00
  -2.893e-01   2.170e-01   0.000e+00
  -2.893e-01   2.893e-01   0.000e+00
  -3.617e-01   2.893e-01   0.000e+00
  -2.170e-01   2.170e-01   0.000e+00
  -2.170e-01   2.893e-01   0.000e+00
  -2.893e-01   2.893e-01   0.000e+00
  -1.447e-01   2.170e-01   0.000e+00
  -1.447e-01   2.532e-01   0.000e+00
  -1.808e-01   2.532e-01   0.000e+00
  -1.800e-01   2.893e-01   0.000e+00
  -1.447e-01   2.832e-01   0.000e+00
  -1.808e-01   2.893e-01   0.000e+00
  -1.447e-01   2.532e-01   0.000e+00
  -1.447e-01   2.893e-01   0.000e+00
  -1.800e-01   2.893e-01   0.000e+00
  -1.447e-01   2.832e-01   0.000e+00
  -1.808e-01   2.893e-01   0.000e+00
  -1.808e-01   2.532e-01   0.000e+00
  -1.447e-01   2.532e-01   0.000e+00
  -2.170e-01   2.893e-01   0.000e+00
  -1.808e-01   2.532e-01   0.000e+00
  -1.808e-01   2.893e-01   0.000e+00
  -7.233e-02   2.170e-01   0.000e+00
  -7.233e-02   2.532e-01   0.000e+00
  -1.085e-01   2.532e-01   0.000e+00
  -7.233e-02   2.893e-01   0.000e+00
  -1.085e-01   2.893e-01   0.000e+00
  -7.233e-02   2.532e-01   0.000e+00
  -1.085e-01   2.893e-01   0.000e+00
  -1.085e-01   2.532e-01   0.000e+00
  -7.233e-02   2.532e-01   0.000e+00
  -1.400e-01   2.847e-01   0.000e+00
  -1.353e-01   2.893e-01   0.000e+00
  -1.085e-01   2.532e-01   0.000e+00
  -1.085e-01   2.893e-01   0.000e+00
  -1.447e-01   2.893e-01   0.000e+00
  -1.400e-01   2.847e-01   0.000e+00
  -1.353e-01   2.893e-01   0.000e+00
   0.000e+00   2.170e-01   0.000e+00
   0.000e+00   2.893e-01   0.000e+00
  -7.233e-02   2.893e-01   0.000e+00
   7.233e-02   2.170e-01   0.000e+00
   7.233e-02   2.893e-01   0.000e+00
   0.000e+00   2.893e-01   0.000e+00
   1.447e-01   2.170e-01   0.000e+00
   1.447e-01   2.893e-01   0.000e+00
   7.233e-02   2.893e-01   0.000e+00
   2.170e-01   2.170e-01   0.000e+00
   2.170e-01   2.893e-01   0.000e+00
   1.447e-01   2.893e-01   0.000e+00
   2.893e-01   2.170e-01   0.000e+00
   2.893e-01   2.893e-01   0.000e+00
   2.170e-01   2.893e-01   0.000e+00
   3.617e-01   2.170e-01   0.000e+00
   3.617e-01   2.893e-01   0.000e+00
   2.893e-01   2.893e-01   0.000e+00
   4.340e-01   2.170e-01   0.000e+00
   4.340e-01   2.893e-01   0.000e+00
   3.617e-01   2.893e-01   0.000e+00
   5.063e-01   2.170e-01   0.000e+00
   5.063e-01   2.893e-01   0.000e+00
   4.340e-01   2.893e-01   0.000e+00
   5.787e-01   2.170e-01   0.000e+00
   5.787e-01   2.893e-01   0.000e+00
   5.063e-01   2.893e-01   0.000e+00
   6.510e-01   2.170e-01   0.000e+00
   6.510e-01   2.893e-01   0.000e+00
   5.787e-01   2.893e-01   0.000e+00
   7.130e-01   2.274e-01   0.000e+00
   7.125e-01   2.532e-01   0.000e+00
   6.872e-01   2.532e-01   0.000e+00
   7.233e-01   2.170e-01   0.000e+00
   7.233e-01   2.532e-01   0.000e+00
   7.130e-01   2.274e-01   0.000e+00
   7.125e-01   2.532e-01   0.000e+00
   6.946e-01   2.893e-01   0.000e+00
   7.004e-01   2.761e-01   0.000e+00
   6.872e-01   2.893e-01   0.000e+00
   7.233e-01   2.893e-01   0.000e+00
   6.946e-01   2.893e-01   0.000e+00
   7.004e-01   2.761e-01   0.000e+00
   7.233e-01   2.532e-01   0.000e+00
   6.872e-01   2.893e-01   0.000e+00
   6.872e-01   2.532e-01   0.000e+00
   7.125e-01   2.532e-01   0.000e+00
   7.004e-01   2.761e-01   0.000e+00
   7.125e-01   2.532e-01   0.000e+00
   7.004e-01   2.761e-01   0.000e+00
   7.233e-01   2.532e-01   0.000e+00
   6.510e-01   2.893e-01   0.000e+00
   6.872e-01   2.532e-01   0.000e+00
   6.872e-01   2.893e-01   0.000e+00
   7.957e-01   2.170e-01   0.000e+00
   7.957e-01   2.893e-01   0.000e+00
   7.233e-01   2.893e-01   0.000e+00
   8.680e-01   2.170e-01   0.000e+00
   8.680e-01   2.893e-01   0.000e+00
   7.957e-01   2.893e-01   0.000e+00
   9.403e-01   2.170e-01   0.000e+00
   9.403e-01   2.893e-01   0.000e+00
   8.680e-01   2.893e-01   0.000e+00
   1.013e+00   2.170e-01   0.000e+00
   1.013e+00   2.893e-01   0.000e+00
   9.403e-01   2.893e-01   0.000e+00
   1.085e+00   2.170e-01   0.000e+00
   1.085e+00   2.893e-01   0.000e+00
   1.013e+00   2.893e-01   0.000e+00
  -1.013e+00   2.893e-01   0.000e+00
  -1.013e+00   3.617e-01   0.000e+00
  -1.085e+00   3.617e-01   0.000e+00
  -9.403e-01   2.893e-01   0.000e+00
  -9.403e-01   3.617e-01   0.000e+00
  -1.013e+00   3.617e-01   0.000e+00
  -8.680e-01   2.893e-01   0.000e+00
  -8.680e-01   3.617e-01   0.000e+00
  -9.403e-01   3.617e-01   0.000e+00
  -7.957e-01   2.893e-01   0.000e+00
  -7.957e-01   3.617e-01   0.000e+00
  -8.680e-01   3.617e-01   0.000e+00
  -7.233e-01   2.893e-01   0.000e+00
  -7.233e-01   3.617e-01   0.000e+00
  -7.957e-01   3.617e-01   0.000e+00
  -6.510e-01   2.893e-01   0.000e+00
  -6.510e-01   3.617e-01   0.000e+00
  -7.233e-01   3.617e-01   0.000e+00
  -5.787e-01   2.893e-01   0.000e+00
  -5.787e-01   3.130e-01   0.000e+00
  -5.924e-01   3.031e-01   0.000e+00
  -5.787e-01   3.130e-01   0.000e+00
  -5.924e-01   3.031e-01   0.000e+00
  -5.787e-01   3.255e-01   0.000e+00
  -6.148e-01   3.255e-01   0.000e+00
  -5.787e-01   3.617e-01   0.000e+00
  -6.148e-01   3.617e-01   0.000e+00
  -5.787e-01   3.255e-01   0.000e+00
  -6.148e-01   3.617e-01   0.000e+00
  -6.148e-01   3.255e-01   0.000e+00
  -5.787e-01   3.255e-01   0.000e+00
  -6.510e-01   3.617e-01   0.000e+00
  -6.148e-01   3.255e-01   0.000e+00
  -6.148e-01   3.617e-01   0.000e+00
  -5.063e-01   2.893e-01   0.000e+00
  -5.063e-01   3.255e-01   0.000e+00
  -5.425e-01   3.255e-01   0.000e+00
  -5.063e-01   3.406e-01   0.000e+00
  -5.185e-01   3.377e-01   0.000e+00
  -5.063e-01   3.255e-01   0.000e+00
  -5.063e-01   3.617e-01   0.000e+00
  -5.425e-01   3.617e-01   0.000e+00
  -5.063e-01   3.406e-01   0.000e+00
  -5.185e-01   3.377e-01   0.000e+00
  -5.185e-01   3.377e-01   0.000e+00
  -5.425e-01   3.310e-01   0.000e+00
  -5.425e-01   3.255e-01   0.000e+00
  -5.063e-01   3.255e-01   0.000e+00
  -5.425e-01   3.617e-01   0.000e+00
  -5.185e-01   3.377e-01   0.000e+00
  -5.425e-01   3.310e-01   0.000e+00
  -5.425e-01   3.310e-01   0.000e+00
  -5.465e-01   3.295e-01   0.000e+00
  -5.425e-01   3.255e-01   0.000e+00
  -5.787e-01   3.617e-01   0.000e+00
  -5.425e-01   3.310e-01   0.000e+00
  -5.465e-01   3.295e-01   0.000e+00
  -5.425e-01   3.617e-01   0.000e+00
  -4.340e-01   2.893e-01   0.000e+00
  -4.340e-01   3.255e-01   0.000e+00
  -4.702e-01   3.255e-01   0.000e+00
  -4.340e-01   3.459e-01   0.000e+00
  -4.540e-01   3.455e-01   0.000e+00
  -4.340e-01   3.255e-01   0.000e+00
  -4.340e-01   3.617e-01   0.000e+00
  -4.702e-01   3.617e-01   0.000e+00
  -4.340e-01   3.459e-01   0.000e+00
  -4.540e-01   3.455e-01   0.000e+00
  -4.540e-01   3.455e-01   0.000e+00
  -4.702e-01   3.451e-01   0.000e+00
  -4.702e-01   3.255e-01   0.000e+00
  -4.340e-01   3.255e-01   0.000e+00
  -4.702e-01   3.617e-01   0.000e+00
  -4.540e-01   3.455e-01   0.000e+00
  -4.702e-01   3.451e-01   0.000e+00
  -4.702e-01   3.451e-01   0.000e+00
  -4.877e-01   3.430e-01   0.000e+00
  -4.702e-01   3.255e-01   0.000e+00
  -5.063e-01   3.617e-01   0.000e+00
  -4.702e-01   3.451e-01   0.000e+00
  -4.877e-01   3.430e-01   0.000e+00
  -4.702e-01   3.617e-01   0.000e+00
  -3.617e-01   2.893e-01   0.000e+00
  -3.617e-01   3.255e-01   0.000e+00
  -3.978e-01   3.255e-01   0.000e+00
  -3.617e-01   3.389e-01   0.000e+00
  -3.770e-01   3.409e-01   0.000e+00
  -3.617e-01   3.255e-01   0.000e+00
  -3.617e-01   3.617e-01   0.000e+00
  -3.978e-01   3.617e-01   0.000e+00
  -3.617e-01   3.389e-01   0.000e+00
  -3.770e-01   3.409e-01   0.000e+00
  -3.770e-01   3.409e-01   0.000e+00
  -3.978e-01   3.437e-01   0.000e+00
  -3.978e-01   3.255e-01   0.000e+00
  -3.617e-01   3.255e-01   0.000e+00
  -3.978e-01   3.617e-01   0.000e+00
  -3.770e-01   3.409e-01   0.000e+00
  -3.978e-01   3.437e-01   0.000e+00
  -3.978e-01   3.437e-01   0.000e+00
  -4.171e-01   3.448e-01   0.000e+00
  -3.978e-01   3.255e-01   0.000e+00
  -4.340e-01   3.617e-01   0.000e+00
  -3.978e-01   3.437e-01   0.000e+00
  -4.171e-01   3.448e-01   0.000e+00
  -3.978e-01   3.617e-01   0.000e+00
  -2.893e-01   2.893e-01   0.000e+00
  -2.893e-01   3.231e-01   0.000e+00
  -2.991e-01   3.255e-01   0.000e+00
  -3.255e-01   3.255e-01   0.000e+00
  -2.893e-01   3.231e-01   0.000e+00
  -2.991e-01   3.255e-01   0.000e+00
  -2.893e-01   3.255e-01   0.000e+00
  -2.893e-01   3.617e-01   0.000e+00
  -3.255e-01   3.617e-01   0.000e+00
  -2.893e-01   3.255e-01   0.000e+00
  -2.991e-01   3.255e-01   0.000e+00
  -3.255e-01   3.320e-01   0.000e+00
  -3.255e-01   3.255e-01   0.000e+00
  -3.255e-01   3.617e-01   0.000e+00
  -2.991e-01   3.255e-01   0.000e+00
  -3.255e-01   3.320e-01   0.000e+00
  -2.893e-01   3.255e-01   0.000e+00
  -3.255e-01   3.320e-01   0.000e+00
  -3.334e-01   3.334e-01   0.000e+00
  -3.255e-01   3.255e-01   0.000e+00
  -3.617e-01   3.617e-01   0.000e+00
  -3.255e-01   3.320e-01   0.000e+00
  -3.334e-01   3.334e-01   0.000e+00
  -3.255e-01   3.617e-01   0.000e+00
  -2.170e-01   2.893e-01   0.000e+00
  -2.170e-01   3.010e-01   0.000e+00
  -2.341e-01   3.064e-01   0.000e+00
  -2.170e-01   3.010e-01   0.000e+00
  -2.341e-01   3.064e-01   0.000e+00
  -2.170e-01   3.255e-01   0.000e+00
  -2.532e-01   3.255e-01   0.000e+00
  -2.170e-01   3.617e-01   0.000e+00
  -2.532e-01   3.617e-01   0.000e+00
  -2.170e-01   3.255e-01   0.000e+00
  -2.532e-01   3.617e-01   0.000e+00
  -2.532e-01   3.255e-01   0.000e+00
  -2.170e-01   3.255e-01   0.000e+00
  -2.893e-01   3.617e-01   0.000e+00
  -2.532e-01   3.255e-01   0.000e+00
  -2.532e-01   3.617e-01   0.000e+00
  -1.447e-01   2.893e-01   0.000e+00
  -1.447e-01   3.617e-01   0.000e+00
  -2.170e-01   3.617e-01   0.000e+00
  -7.233e-02   2.893e-01   0.000e+00
  -7.233e-02   3.255e-01   0.000e+00
  -1.085e-01   3.255e-01   0.000e+00
  -7.233e-02   3.617e-01   0.000e+00
  -1.085e-01   3.617e-01   0.000e+00
  -7.233e-02   3.255e-01   0.000e+00
  -1.085e-01   3.617e-01   0.000e+00
  -1.085e-01   3.255e-01   0.000e+00
  -7.233e-02   3.255e-01   0.000e+00
  -1.186e-01   3.356e-01   0.000e+00
  -1.181e-01   3.617e-01   0.000e+00
  -1.085e-01   3.255e-01   0.000e+00
  -1.085e-01   3.617e-01   0.000e+00
  -1.447e-01   3.617e-01   0.000e+00
  -1.186e-01   3.356e-01   0.000e+00
  -1.181e-01   3.617e-01   0.000e+00
   0.000e+00   2.893e-01   0.000e+00
   0.000e+00   3.617e-01   0.000e+00
  -7.233e-02   3.617e-01   0.000e+00
   7.233e-02   2.893e-01   0.000e+00
   7.233e-02   3.617e-01   0.000e+00
   0.000e+00   3.617e-01   0.000e+00
   1.447e-01   2.893e-01   0.000e+00
   1.447e-01   3.617e-01   0.000e+00
   7.233e-02   3.617e-01   0.000e+00
   2.170e-01   2.893e-01   0.000e+00
   2.170e-01   2.941e-01   0.000e+00
   2.083e-01   3.255e-01   0.000e+00
   1.808e-01   3.255e-01   0.000e+00
   2.170e-01   2.941e-01   0.000e+00
   2.083e-01   3.255e-01   0.000e+00
   2.170e-01   3.255e-01   0.000e+00
   2.075e-01   3.617e-01   0.000e+00
   2.081e-01   3.344e-01   0.000e+00
   1.808e-01   3.617e-01   0.000e+00
   2.170e-01   3.617e-01   0.000e+00
   2.075e-01   3.617e-01   0.000e+00
   2.081e-01   3.344e-01   0.000e+00
   2.170e-01   3.255e-01   0.000e+00
   1.808e-01   3.617e-01   0.000e+00
   1.808e-01   3.255e-01   0.000e+00
   2.083e-01   3.255e-01   0.000e+00
   2.081e-01   3.344e-01   0.000e+00
   2.083e-01   3.255e-01   0.000e+00
   2.081e-01   3.344e-01   0.000e+00
   2.170e-01   3.255e-01   0.000e+00
   1.447e-01   3.617e-01   0.000e+00
   1.808e-01   3.255e-01   0.000e+00
   1.808e-01   3.617e-01   0.000e+00
   2.893e-01   2.893e-01   0.000e+00
   2.893e-01   2.954e-01   0.000e+00
   2.847e-01   2.940e-01   0.000e+00
   2.893e-01   2.954e-01   0.000e+00
   2.847e-01   2.940e-01   0.000e+00
   2.893e-01   3.255e-01   0.000e+00
   2.532e-01   3.255e-01   0.000e+00
   2.893e-01   3.617e-01   0.000e+00
   2.532e-01   3.617e-01   0.000e+00
   2.893e-01   3.255e-01   0.000e+00
   2.532e-01   3.617e-01   0.000e+00
   2.532e-01   3.255e-01   0.000e+00
   2.893e-01   3.255e-01   0.000e+00
   2.170e-01   3.617e-01   0.000e+00
   2.532e-01   3.255e-01   0.000e+00
   2.532e-01   3.617e-01   0.000e+00
   3.617e-01   2.893e-01   0.000e+00
   3.617e-01   3.183e-01   0.000e+00
   3.395e-01   3.115e-01   0.000e+00
   3.617e-01   3.183e-01   0.000e+00
   3.395e-01   3.115e-01   0.000e+00
   3.617e-01   3.255e-01   0.000e+00
   3.255e-01   3.255e-01   0.000e+00
   3.617e-01   3.617e-01   0.000e+00
   3.255e-01   3.617e-01   0.000e+00
   3.617e-01   3.255e-01   0.000e+00
   3.255e-01   3.617e-01   0.000e+00
   3.255e-01   3.255e-01   0.000e+00
   3.617e-01   3.255e-01   0.000e+00
   2.893e-01   3.617e-01   0.000e+00
   3.255e-01   3.255e-01   0.000e+00
   3.255e-01   3.617e-01   0.000e+00
   4.340e-01   2.893e-01   0.000e+00
   4.340e-01   3.255e-01   0.000e+00
   3.978e-01   3.255e-01   0.000e+00
   4.340e-01   3.359e-01   0.000e+00
   4.254e-01   3.341e-01   0.000e+00
   4.340e-01   3.255e-01   0.000e+00
   4.340e-01   3.617e-01   0.000e+00
   3.978e-01   3.617e-01   0.000e+00
   4.340e-01   3.359e-01   0.000e+00
   4.254e-01   3.341e-01   0.000e+00
   4.254e-01   3.341e-01   0.000e+00
   3.978e-01   3.280e-01   0.000e+00
   3.978e-01   3.255e-01   0.000e+00
   4.340e-01   3.255e-01   0.000e+00
   3.978e-01   3.617e-01   0.000e+00
   4.254e-01   3.341e-01   0.000e+00
   3.978e-01   3.280e-01   0.000e+00
   3.978e-01   3.280e-01   0.000e+00
   3.959e-01   3.275e-01   0.000e+00
   3.978e-01   3.255e-01   0.000e+00
   3.617e-01   3.617e-01   0.000e+00
   3.978e-01   3.280e-01   0.000e+00
   3.959e-01   3.275e-01   0.000e+00
   3.978e-01   3.617e-01   0.000e+00
   5.063e-01   2.893e-01   0.000e+00
   5.063e-01   3.255e-01   0.000e+00
   4.702e-01   3.255e-01   0.000e+00
   5.063e-01   3.452e-01   0.000e+00
   4.883e-01   3.435e-01   0.000e+00
   5.063e-01   3.255e-01   0.000e+00
   5.063e-01   3.617e-01   0.000e+00
   4.702e-01   3.617e-01   0.000e+00
   5.063e-01   3.452e-01   0.000e+00
   4.883e-01   3.435e-01   0.000e+00
   4.883e-01   3.435e-01   0.000e+00
   4.702e-01   3.417e-01   0.000e+00
   4.702e-01   3.255e-01   0.000e+00
   5.063e-01   3.255e-01   0.000e+00
   4.702e-01   3.617e-01   0.000e+00
   4.883e-01   3.435e-01   0.000e+00
   4.702e-01   3.417e-01   0.000e+00
   4.702e-01   3.417e-01   0.000e+00
   4.561e-01   3.395e-01   0.000e+00
   4.702e-01   3.255e-01   0.000e+00
   4.340e-01   3.617e-01   0.000e+00
   4.702e-01   3.417e-01   0.000e+00
   4.561e-01   3.395e-01   0.000e+00
   4.702e-01   3.617e-01   0.000e+00
   5.787e-01   2.893e-01   0.000e+00
   5.787e-01   3.255e-01   0.000e+00
   5.425e-01   3.255e-01   0.000e+00
   5.787e-01   3.432e-01   0.000e+00
   5.596e-01   3.445e-01   0.000e+00
   5.787e-01   3.255e-01   0.000e+00
   5.787e-01   3.617e-01   0.000e+00
   5.425e-01   3.617e-01   0.000e+00
   5.787e-01   3.432e-01   0.000e+00
   5.596e-01   3.445e-01   0.000e+00
   5.596e-01   3.445e-01   0.000e+00
   5.425e-01   3.459e-01   0.000e+00
   5.425e-01   3.255e-01   0.000e+00
   5.787e-01   3.255e-01   0.000e+00
   5.425e-01   3.617e-01   0.000e+00
   5.596e-01   3.445e-01   0.000e+00
   5.425e-01   3.459e-01   0.000e+00
   5.425e-01   3.459e-01   0.000e+00
   5.225e-01   3.455e-01   0.000e+00
   5.425e-01   3.255e-01   0.000e+00
   5.063e-01   3.617e-01   0.000e+00
   5.425e-01   3.459e-01   0.000e+00
   5.225e-01   3.455e-01   0.000e+00
   5.425e-01   3.617e-01   0.000e+00
   6.510e-01   2.893e-01   0.000e+00
   6.510e-01   3.230e-01   0.000e+00
   6.448e-01   3.255e-01   0.000e+00
   6.148e-01   3.255e-01   0.000e+00
   6.510e-01   3.230e-01   0.000e+00
   6.448e-01   3.255e-01   0.000e+00
   6.510e-01   3.255e-01   0.000e+00
   6.510e-01   3.617e-01   0.000e+00
   6.148e-01   3.617e-01   0.000e+00
   6.510e-01   3.255e-01   0.000e+00
   6.448e-01   3.255e-01   0.000e+00
   6.148e-01   3.363e-01   0.000e+00
   6.148e-01   3.255e-01   0.000e+00
   6.148e-01   3.617e-01   0.000e+00
   6.448e-01   3.255e-01   0.000e+00
   6.148e-01   3.363e-01   0.000e+00
   6.510e-01   3.255e-01   0.000e+00
   6.148e-01   3.363e-01   0.000e+00
   6.017e-01   3.386e-01   0.000e+00
   6.148e-01   3.255e-01   0.000e+00
   5.787e-01   3.617e-01   0.000e+00
   6.148e-01   3.363e-01   0.000e+00
   6.017e-01   3.386e-01   0.000e+00
   6.148e-01   3.617e-01   0.000e+00
   7.233e-01   2.893e-01   0.000e+00
   7.233e-01   3.617e-01   0.000e+00
   6.510e-01   3.617e-01   0.000e+00
   7.957e-01   2.893e-01   0.000e+00
   7.957e-01   3.617e-01   0.000e+00
   7.233e-01   3.617e-01   0.000e+00
   8.680e-01   2.893e-01   0.000e+00
   8.680e-01   3.617e-01   0.000e+00
   7.957e-01   3.617e-01   0.000e+00
   9.403e-01   2.893e-01   0.000e+00
   9.403e-01   3.617e-01   0.000e+00
   8.680e-01   3.617e-01   0.000e+00
   1.013e+00   2.893e-01   0.000e+00
   1.013e+00   3.617e-01   0.000e+00
   9.403e-01   3.617e-01   0.000e+00
   1.085e+00   2.893e-01   0.000e+00
   1.085e+00   3.617e-01   0.000e+00
   1.013e+00   3.617e-01   0.000e+00
  -1.013e+00   3.617e-01   0.000e+00
  -1.013e+00   4.340e-01   0.000e+00
  -1.085e+00   4.340e-01   0.000e+00
  -9.403e-01   3.617e-01   0.000e+00
  -9.403e-01   4.340e-01   0.000e+00
  -1.013e+00   4.340e-01   0.000e+00
  -8.680e-01   3.617e-01   0.000e+00
  -8.680e-01   4.340e-01   0.000e+00
  -9.403e-01   4.340e-01   0.000e+00
  -7.957e-01   3.617e-01   0.000e+00
  -7.957e-01   4.340e-01   0.000e+00
  -8.680e-01   4.340e-01   0.000e+00
  -7.233e-01   3.617e-01   0.000e+00
  -7.233e-01   4.340e-01   0.000e+00
  -7.957e-01   4.340e-01   0.000e+00
  -6.510e-01   3.617e-01   0.000e+00
  -6.510e-01   4.340e-01   0.000e+00
  -7.233e-01   4.340e-01   0.000e+00
  -5.787e-01   3.617e-01   0.000e+00
  -5.787e-01   4.340e-01   0.000e+00
  -6.510e-01   4.340e-01   0.000e+00
  -5.063e-01   3.617e-01   0.000e+00
  -5.063e-01   4.340e-01   0.000e+00
  -5.787e-01   4.340e-01   0.000e+00
  -4.340e-01   3.617e-01   0.000e+00
  -4.340e-01   4.340e-01   0.000e+00
  -5.063e-01   4.340e-01   0.000e+00
  -3.617e-01   3.617e-01   0.000e+00
  -3.617e-01   4.340e-01   0.000e+00
  -4.340e-01   4.340e-01   0.000e+00
  -2.893e-01   3.617e-01   0.000e+00
  -2.893e-01   4.340e-01   0.000e+00
  -3.617e-01   4.340e-01   0.000e+00
  -2.170e-01   3.617e-01   0.000e+00
  -2.170e-01   4.340e-01   0.000e+00
  -2.893e-01   4.340e-01   0.000e+00
  -1.447e-01   3.617e-01   0.000e+00
  -1.447e-01   4.340e-01   0.000e+00
  -2.170e-01   4.340e-01   0.000e+00
  -7.233e-02   3.617e-01   0.000e+00
  -7.233e-02   3.978e-01   0.000e+00
  -1.085e-01   3.978e-01   0.000e+00
  -7.233e-02   4.340e-01   0.000e+00
  -1.085e-01   4.340e-01   0.000e+00
  -7.233e-02   3.978e-01   0.000e+00
  -1.085e-01   4.340e-01   0.000e+00
  -1.085e-01   3.978e-01   0.000e+00
  -7.233e-02   3.978e-01   0.000e+00
  -1.179e-01   4.072e-01   0.000e+00
  -1.174e-01   4.340e-01   0.000e+00
  -1.085e-01   3.978e-01   0.000e+00
  -1.085e-01   4.340e-01   0.000e+00
  -1.447e-01   4.340e-01   0.000e+00
  -1.179e-01   4.072e-01   0.000e+00
  -1.174e-01   4.340e-01   0.000e+00
   0.000e+00   3.617e-01   0.000e+00
   0.000e+00   4.340e-01   0.000e+00
  -7.233e-02   4.340e-01   0.000e+00
   7.233e-02   3.617e-01   0.000e+00
   7.233e-02   4.340e-01   0.000e+00
   0.000e+00   4.340e-01   0.000e+00
   1.447e-01   3.617e-01   0.000e+00
   1.447e-01   4.340e-01   0.000e+00
   7.233e-02   4.340e-01   0.000e+00
   2.075e-01   3.712e-01   0.000e+00
   2.075e-01   3.978e-01   0.000e+00
   1.808e-01   3.978e-01   0.000e+00
   2.170e-01   3.617e-01   0.000e+00
   2.170e-01   3.978e-01   0.000e+00
   2.075e-01   3.712e-01   0.000e+00
   2.075e-01   3.978e-01   0.000e+00
   2.068e-01   4.340e-01   0.000e+00
   2.073e-01   4.075e-01   0.000e+00
   1.808e-01   4.340e-01   0.000e+00
   2.170e-01   4.340e-01   0.000e+00
   2.068e-01   4.340e-01   0.000e+00
   2.073e-01   4.075e-01   0.000e+00
   2.170e-01   3.978e-01   0.000e+00
   1.808e-01   4.340e-01   0.000e+00
   1.808e-01   3.978e-01   0.000e+00
   2.075e-01   3.978e-01   0.000e+00
   2.073e-01   4.075e-01   0.000e+00
   2.075e-01   3.978e-01   0.000e+00
   2.073e-01   4.075e-01   0.000e+00
   2.170e-01   3.978e-01   0.000e+00
   1.447e-01   4.340e-01   0.000e+00
   1.808e-01   3.978e-01   0.000e+00
   1.808e-01   4.340e-01   0.000e+00
   2.893e-01   3.617e-01   0.000e+00
   2.893e-01   4.340e-01   0.000e+00
   2.170e-01   4.340e-01   0.000e+00
   3.617e-01   3.617e-01   0.000e+00
   3.617e-01   4.340e-01   0.000e+00
   2.893e-01   4.340e-01   0.000e+00
   4.340e-01   3.617e-01   0.000e+00
   4.340e-01   4.340e-01   0.000e+00
   3.617e-01   4.340e-01   0.000e+00
   5.063e-01   3.617e-01   0.000e+00
   5.063e-01   4.340e-01   0.000e+00
   4.340e-01   4.340e-01   0.000e+00
   5.787e-01   3.617e-01   0.000e+00
   5.787e-01   4.340e-01   0.000e+00
   5.063e-01   4.340e-01   0.000e+00
   6.510e-01   3.617e-01   0.000e+00
   6.510e-01   4.340e-01   0.000e+00
   5.787e-01   4.340e-01   0.000e+00
   7.233e-01   3.617e-01   0.000e+00
   7.233e-01   4.340e-01   0.000e+00
   6.510e-01   4.340e-01   0.000e+00
   7.957e-01   3.617e-01   0.000e+00
   7.957e-01   4.340e-01   0.000e+00
   7.233e-01   4.340e-01   0.000e+00
   8.680e-01   3.617e-01   0.000e+00
   8.680e-01   4.340e-01   0.000e+00
   7.957e-01   4.340e-01   0.000e+00
   9.403e-01   3.617e-01   0.000e+00
   9.403e-01   4.340e-01   0.000e+00
   8.680e-01   4.340e-01   0.000e+00
   1.013e+00   3.617e-01   0.000e+00
   1.013e+00   4.340e-01   0.000e+00
   9.403e-01   4.340e-01   0.000e+00
   1.085e+00   3.617e-01   0.000e+00
   1.085e+00   4.340e-01   0.000e+00
   1.013e+00   4.340e-01   0.000e+00
  -1.013e+00   4.340e-01   0.000e+00
  -1.013e+00   5.063e-01   0.000e+00
  -1.085e+00   5.063e-01   0.000e+00
  -9.403e-01   4.340e-01   0.000e+00
  -9.403e-01   5.063e-01   0.000e+00
  -1.013e+00   5.063e-01   0.000e+00
  -8.680e-01   4.340e-01   0.000e+00
  -8.680e-01   5.063e-01   0.000e+00
  -9.403e-01   5.063e-01   0.000e+00
  -7.957e-01   4.340e-01   0.000e+00
  -7.957e-01   5.063e-01   0.000e+00
  -8.680e-01   5.063e-01   0.000e+00
  -7.233e-01   4.340e-01   0.000e+00
  -7.233e-01   5.063e-01   0.000e+00
  -7.957e-01   5.063e-01   0.000e+00
  -6.510e-01   4.340e-01   0.000e+00
  -6.510e-01   5.063e-01   0.000e+00
  -7.233e-01   5.063e-01   0.000e+00
  -5.787e-01   4.340e-01   0.000e+00
  -5.787e-01   5.063e-01   0.000e+00
  -6.510e-01   5.063e-01   0.000e+00
  -5.063e-01   4.340e-01   0.000e+00
  -5.063e-01   5.063e-01   0.000e+00
  -5.787e-01   5.063e-01   0.000e+00
  -4.340e-01   4.340e-01   0.000e+00
  -4.340e-01   5.063e-01   0.000e+00
  -5.063e-01   5.063e-01   0.000e+00
  -3.617e-01   4.340e-01   0.000e+00
  -3.617e-01   5.063e-01   0.000e+00
  -4.340e-01   5.063e-01   0.000e+00
  -2.893e-01   4.340e-01   0.000e+00
  -2.893e-01   5.063e-01   0.000e+00
  -3.617e-01   5.063e-01   0.000e+00
  -2.170e-01   4.340e-01   0.000e+00
  -2.170e-01   5.063e-01   0.000e+00
  -2.893e-01   5.063e-01   0.000e+00
  -1.447e-01   4.340e-01   0.000e+00
  -1.447e-01   5.063e-01   0.000e+00
  -2.170e-01   5.063e-01   0.000e+00
  -7.233e-02   4.340e-01   0.000e+00
  -7.233e-02   4.702e-01   0.000e+00
  -1.085e-01   4.702e-01   0.000e+00
  -7.233e-02   5.063e-01   0.000e+00
  -1.085e-01   5.063e-01   0.000e+00
  -7.233e-02   4.702e-01   0.000e+00
  -1.085e-01   5.063e-01   0.000e+00
  -1.085e-01   4.702e-01   0.000e+00
  -7.233e-02   4.702e-01   0.000e+00
  -1.148e-01   4.765e-01   0.000e+00
  -1.117e-01   5.063e-01   0.000e+00
  -1.085e-01   4.702e-01   0.000e+00
  -1.085e-01   5.063e-01   0.000e+00
  -1.447e-01   5.063e-01   0.000e+00
  -1.148e-01   4.765e-01   0.000e+00
  -1.117e-01   5.063e-01   0.000e+00
   0.000e+00   4.340e-01   0.000e+00
   0.000e+00   5.063e-01   0.000e+00
  -7.233e-02   5.063e-01   0.000e+00
   7.233e-02   4.340e-01   0.000e+00
   7.233e-02   5.063e-01   0.000e+00
   0.000e+00   5.063e-01   0.000e+00
   1.447e-01   4.340e-01   0.000e+00
   1.447e-01   5.063e-01   0.000e+00
   7.233e-02   5.063e-01   0.000e+00
   2.062e-01   4.448e-01   0.000e+00
   2.048e-01   4.702e-01   0.000e+00
   1.808e-01   4.702e-01   0.000e+00
   2.170e-01   4.340e-01   0.000e+00
   2.170e-01   4.702e-01   0.000e+00
   2.062e-01   4.448e-01   0.000e+00
   2.048e-01   4.702e-01   0.000e+00
   2.012e-01   5.063e-01   0.000e+00
   2.034e-01   4.837e-01   0.000e+00
   1.808e-01   5.063e-01   0.000e+00
   2.170e-01   5.063e-01   0.000e+00
   2.012e-01   5.063e-01   0.000e+00
   2.034e-01   4.837e-01   0.000e+00
   2.170e-01   4.702e-01   0.000e+00
   1.808e-01   5.063e-01   0.000e+00
   1.808e-01   4.702e-01   0.000e+00
   2.048e-01   4.702e-01   0.000e+00
   2.034e-01   4.837e-01   0.000e+00
   2.048e-01   4.702e-01   0.000e+00
   2.034e-01   4.837e-01   0.000e+00
   2.170e-01   4.702e-01   0.000e+00
   1.447e-01   5.063e-01   0.000e+00
   1.808e-01   4.702e-01   0.000e+00
   1.808e-01   5.063e-01   0.000e+00
   2.893e-01   4.340e-01   0.000e+00
   2.893e-01   5.063e-01   0.000e+00
   2.170e-01   5.063e-01   0.000e+00
   3.617e-01   4.340e-01   0.000e+00
   3.617e-01   5.063e-01   0.000e+00
   2.893e-01   5.063e-01   0.000e+00
   4.340e-01   4.340e-01   0.000e+00
   4.340e-01   5.063e-01   0.000e+00
   3.617e-01   5.063e-01   0.000e+00
   5.063e-01   4.340e-01   0.000e+00
   5.063e-01   5.063e-01   0.000e+00
   4.340e-01   5.063e-01   0.000e+00
   5.787e-01   4.340e-01   0.000e+00
   5.787e-01   5.063e-01   0.000e+00
   5.063e-01   5.063e-01   0.000e+00
   6.510e-01   4.340e-01   0.000e+00
   6.510e-01   5.063e-01   0.000e+00
   5.787e-01   5.063e-01   0.000e+00
   7.233e-01   4.340e-01   0.000e+00
   7.233e-01   5.063e-01   0.000e+00
   6.510e-01   5.063e-01   0.000e+00
   7.957e-01   4.340e-01   0.000e+00
   7.957e-01   5.063e-01   0.000e+00
   7.233e-01   5.063e-01   0.000e+00
   8.680e-01   4.340e-01   0.000e+00
   8.680e-01   5.063e-01   0.000e+00
   7.957e-01   5.063e-01   0.000e+00
   9.403e-01   4.340e-01   0.000e+00
   9.403e-01   5.063e-01   0.000e+00
   8.680e-01   5.063e-01   0.000e+00
   1.013e+00   4.340e-01   0.000e+00
   1.013e+00   5.063e-01   0.000e+00
   9.403e-01   5.063e-01   0.000e+00
   1.085e+00   4.340e-01   0.000e+00
   1.085e+00   5.063e-01   0.000e+00
   1.013e+00   5.063e-01   0.000e+00
  -1.013e+00   5.063e-01   0.000e+00
  -1.013e+00   5.787e-01   0.000e+00
  -1.085e+00   5.787e-01   0.000e+00
  -9.403e-01   5.063e-01   0.000e+00
  -9.403e-01   5.787e-01   0.000e+00
  -1.013e+00   5.787e-01   0.000e+00
  -8.680e-01   5.063e-01   0.000e+00
  -8.680e-01   5.787e-01   0.000e+00
  -9.403e-01   5.787e-01   0.000e+00
  -7.957e-01   5.063e-01   0.000e+00
  -7.957e-01   5.787e-01   0.000e+00
  -8.680e-01   5.787e-01   0.000e+00
  -7.233e-01   5.063e-01   0.000e+00
  -7.233e-01   5.787e-01   0.000e+00
  -7.957e-01   5.787e-01   0.000e+00
  -6.510e-01   5.063e-01   0.000e+00
  -6.510e-01   5.787e-01   0.000e+00
  -7.233e-01   5.787e-01   0.000e+00
  -5.787e-01   5.063e-01   0.000e+00
  -5.787e-01   5.787e-01   0.000e+00
  -6.510e-01   5.787e-01   0.000e+00
  -5.063e-01   5.063e-01   0.000e+00
  -5.063e-01   5.787e-01   0.000e+00
  -5.787e-01   5.787e-01   0.000e+00
  -4.340e-01   5.063e-01   0.000e+00
  -4.340e-01   5.787e-01   0.000e+00
  -5.063e-01   5.787e-01   0.000e+00
  -3.617e-01   5.063e-01   0.000e+00
  -3.617e-01   5.787e-01   0.000e+00
  -4.340e-01   5.787e-01   0.000e+00
  -2.893e-01   5.063e-01   0.000e+00
  -2.893e-01   5.787e-01   0.000e+00
  -3.617e-01   5.787e-01   0.000e+00
  -2.170e-01   5.063e-01   0.000e+00
  -2.170e-01   5.787e-01   0.000e+00
  -2.893e-01   5.787e-01   0.000e+00
  -1.447e-01   5.063e-01   0.000e+00
  -1.447e-01   5.787e-01   0.000e+00
  -2.170e-01   5.787e-01   0.000e+00
  -7.233e-02   5.063e-01   0.000e+00
  -7.233e-02   5.425e-01   0.000e+00
  -1.064e-01   5.404e-01   0.000e+00
  -1.060e-01   5.425e-01   0.000e+00
  -1.064e-01   5.404e-01   0.000e+00
  -1.060e-01   5.425e-01   0.000e+00
  -1.085e-01   5.425e-01   0.000e+00
  -7.233e-02   5.787e-01   0.000e+00
  -9.781e-02   5.787e-01   0.000e+00
  -9.989e-02   5.701e-01   0.000e+00
  -7.233e-02   5.425e-01   0.000e+00
  -9.781e-02   5.787e-01   0.000e+00
  -9.989e-02   5.701e-01   0.000e+00
  -1.085e-01   5.787e-01   0.000e+00
  -1.060e-01   5.425e-01   0.000e+00
  -9.989e-02   5.701e-01   0.000e+00
  -7.233e-02   5.425e-01   0.000e+00
  -1.085e-01   5.787e-01   0.000e+00
  -1.085e-01   5.425e-01   0.000e+00
  -1.060e-01   5.425e-01   0.000e+00
  -9.989e-02   5.701e-01   0.000e+00
  -1.447e-01   5.787e-01   0.000e+00
  -1.085e-01   5.425e-01   0.000e+00
  -1.085e-01   5.787e-01   0.000e+00
   0.000e+00   5.063e-01   0.000e+00
   0.000e+00   5.787e-01   0.000e+00
  -7.233e-02   5.787e-01   0.000e+00
   7.233e-02   5.063e-01   0.000e+00
   7.233e-02   5.787e-01   0.000e+00
   0.000e+00   5.787e-01   0.000e+00
   1.447e-01   5.063e-01   0.000e+00
   1.447e-01   5.787e-01   0.000e+00
   7.233e-02   5.787e-01   0.000e+00
   1.981e-01   5.252e-01   0.000e+00
   1.954e-01   5.425e-01   0.000e+00
   1.808e-01   5.425e-01   0.000e+00
   2.170e-01   5.063e-01   0.000e+00
   2.170e-01   5.425e-01   0.000e+00
   1.981e-01   5.252e-01   0.000e+00
   1.954e-01   5.425e-01   0.000e+00
   1.873e-01   5.787e-01   0.000e+00
   1.890e-01   5.705e-01   0.000e+00
   1.808e-01   5.787e-01   0.000e+00
   2.170e-01   5.787e-01   0.000e+00
   1.873e-01   5.787e-01   0.000e+00
   1.890e-01   5.705e-01   0.000e+00
   2.170e-01   5.425e-01   0.000e+00
   1.808e-01   5.787e-01   0.000e+00
   1.808e-01   5.425e-01   0.000e+00
   1.954e-01   5.425e-01   0.000e+00
   1.890e-01   5.705e-01   0.000e+00
   1.954e-01   5.425e-01   0.000e+00
   1.890e-01   5.705e-01   0.000e+00
   2.170e-01   5.425e-01   0.000e+00
   1.447e-01   5.787e-01   0.000e+00
   1.808e-01   5.425e-01   0.000e+00
   1.808e-01   5.787e-01   0.000e+00
   2.893e-01   5.063e-01   0.000e+00
   2.893e-01   5.787e-01   0.000e+00
   2.170e-01   5.787e-01   0.000e+00
   3.617e-01   5.063e-01   0.000e+00
   3.617e-01   5.787e-01   0.000e+00
   2.893e-01   5.787e-01   0.000e+00
   4.340e-01   5.063e-01   0.000e+00
   4.340e-01   5.787e-01   0.000e+00
   3.617e-01   5.787e-01   0.000e+00
   5.063e-01   5.063e-01   0.000e+00
   5.063e-01   5.787e-01   0.000e+00
   4.340e-01   5.787e-01   0.000e+00
   5.787e-01   5.063e-01   0.000e+00
   5.787e-01   5.787e-01   0.000e+00
   5.063e-01   5.787e-01   0.000e+00
   6.510e-01   5.063e-01   0.000e+00
   6.510e-01   5.787e-01   0.000e+00
   5.787e-01   5.787e-01   0.000e+00
   7.233e-01   5.063e-01   0.000e+00
   7.233e-01   5.787e-01   0.000e+00
   6.510e-01   5.787e-01   0.000e+00
   7.957e-01   5.063e-01   0.000e+00
   7.957e-01   5.787e-01   0.000e+00
   7.233e-01   5.787e-01   0.000e+00
   8.680e-01   5.063e-01   0.000e+00
   8.680e-01   5.787e-01   0.000e+00
   7.957e-01   5.787e-01   0.000e+00
   9.403e-01   5.063e-01   0.000e+00
   9.403e-01   5.787e-01   0.000e+00
   8.680e-01   5.787e-01   0.000e+00
   1.013e+00   5.063e-01   0.000e+00
   1.013e+00   5.787e-01   0.000e+00
   9.403e-01   5.787e-01   0.000e+00
   1.085e+00   5.063e-01   0.000e+00
   1.085e+00   5.787e-01   0.000e+00
   1.013e+00   5.787e-01   0.000e+00
  -1.013e+00   5.787e-01   0.000e+00
  -1.013e+00   6.510e-01   0.000e+00
  -1.085e+00   6.510e-01   0.000e+00
  -9.403e-01   5.787e-01   0.000e+00
  -9.403e-01   6.510e-01   0.000e+00
  -1.013e+00   6.510e-01   0.000e+00
  -8.680e-01   5.787e-01   0.000e+00
  -8.680e-01   6.510e-01   0.000e+00
  -9.403e-01   6.510e-01   0.000e+00
  -7.957e-01   5.787e-01   0.000e+00
  -7.957e-01   6.510e-01   0.000e+00
  -8.680e-01   6.510e-01   0.000e+00
  -7.233e-01   5.787e-01   0.000e+00
  -7.233e-01   6.510e-01   0.000e+00
  -7.957e-01   6.510e-01   0.000e+00
  -6.510e-01   5.787e-01   0.000e+00
  -6.510e-01   6.510e-01   0.000e+00
  -7.233e-01   6.510e-01   0.000e+00
  -5.787e-01   5.787e-01   0.000e+00
  -5.787e-01   6.510e-01   0.000e+00
  -6.510e-01   6.510e-01   0.000e+00
  -5.063e-01   5.787e-01   0.000e+00
  -5.063e-01   6.510e-01   0.000e+00
  -5.787e-01   6.510e-01   0.000e+00
  -4.340e-01   5.787e-01   0.000e+00
  -4.340e-01   6.510e-01   0.000e+00
  -5.063e-01   6.510e-01   0.000e+00
  -3.617e-01   5.787e-01   0.000e+00
  -3.617e-01   6.510e-01   0.000e+00
  -4.340e-01   6.510e-01   0.000e+00
  -2.893e-01   5.787e-01   0.000e+00
  -2.893e-01   6.510e-01   0.000e+00
  -3.617e-01   6.510e-01   0.000e+00
  -2.170e-01   5.787e-01   0.000e+00
  -2.170e-01   6.510e-01   0.000e+00
  -2.893e-01   6.510e-01   0.000e+00
  -1.447e-01   5.787e-01   0.000e+00
  -1.447e-01   6.510e-01   0.000e+00
  -2.170e-01   6.510e-01   0.000e+00
  -7.233e-02   5.787e-01   0.000e+00
  -7.233e-02   6.148e-01   0.000e+00
  -9.197e-02   5.983e-01   0.000e+00
  -8.651e-02   6.148e-01   0.000e+00
  -9.197e-02   5.983e-01   0.000e+00
  -8.651e-02   6.148e-01   0.000e+00
  -1.085e-01   6.148e-01   0.000e+00
  -7.233e-02   6.484e-01   0.000e+00
  -8.257e-02   6.251e-01   0.000e+00
  -7.233e-02   6.148e-01   0.000e+00
  -7.233e-02   6.510e-01   0.000e+00
  -1.085e-01   6.510e-01   0.000e+00
  -7.233e-02   6.484e-01   0.000e+00
  -8.257e-02   6.251e-01   0.000e+00
  -8.651e-02   6.148e-01   0.000e+00
  -8.257e-02   6.251e-01   0.000e+00
  -7.233e-02   6.148e-01   0.000e+00
  -1.085e-01   6.510e-01   0.000e+00
  -1.085e-01   6.148e-01   0.000e+00
  -8.651e-02   6.148e-01   0.000e+00
  -8.257e-02   6.251e-01   0.000e+00
  -1.447e-01   6.510e-01   0.000e+00
  -1.085e-01   6.148e-01   0.000e+00
  -1.085e-01   6.510e-01   0.000e+00
   0.000e+00   5.787e-01   0.000e+00
   0.000e+00   6.148e-01   0.000e+00
  -3.617e-02   6.148e-01   0.000e+00
   0.000e+00   6.510e-01   0.000e+00
  -3.617e-02   6.510e-01   0.000e+00
   0.000e+00   6.148e-01   0.000e+00
  -3.617e-02   6.510e-01   0.000e+00
  -3.617e-02   6.148e-01   0.000e+00
   0.000e+00   6.148e-01   0.000e+00
  -7.155e-02   6.502e-01   0.000e+00
  -7.115e-02   6.510e-01   0.000e+00
  -3.617e-02   6.148e-01   0.000e+00
  -3.617e-02   6.510e-01   0.000e+00
  -7.233e-02   6.510e-01   0.000e+00
  -7.155e-02   6.502e-01   0.000e+00
  -7.115e-02   6.510e-01   0.000e+00
   7.233e-02   5.787e-01   0.000e+00
   7.233e-02   6.510e-01   0.000e+00
   0.000e+00   6.510e-01   0.000e+00
   1.447e-01   5.787e-01   0.000e+00
   1.447e-01   6.510e-01   0.000e+00
   7.233e-02   6.510e-01   0.000e+00
   2.170e-01   5.787e-01   0.000e+00
   2.170e-01   6.148e-01   0.000e+00
   1.808e-01   6.148e-01   0.000e+00
   2.170e-01   6.510e-01   0.000e+00
   1.808e-01   6.510e-01   0.000e+00
   2.170e-01   6.148e-01   0.000e+00
   1.808e-01   6.510e-01   0.000e+00
   1.808e-01   6.148e-01   0.000e+00
   2.170e-01   6.148e-01   0.000e+00
   1.447e-01   6.510e-01   0.000e+00
   1.721e-01   6.236e-01   0.000e+00
   1.605e-01   6.510e-01   0.000e+00
   1.721e-01   6.236e-01   0.000e+00
   1.605e-01   6.510e-01   0.000e+00
   1.808e-01   6.148e-01   0.000e+00
   1.808e-01   6.510e-01   0.000e+00
   2.893e-01   5.787e-01   0.000e+00
   2.893e-01   6.510e-01   0.000e+00
   2.170e-01   6.510e-01   0.000e+00
   3.617e-01   5.787e-01   0.000e+00
   3.617e-01   6.510e-01   0.000e+00
   2.893e-01   6.510e-01   0.000e+00
   4.340e-01   5.787e-01   0.000e+00
   4.340e-01   6.510e-01   0.000e+00
   3.617e-01   6.510e-01   0.000e+00
   5.063e-01   5.787e-01   0.000e+00
   5.063e-01   6.510e-01   0.000e+00
   4.340e-01   6.510e-01   0.000e+00
   5.787e-01   5.787e-01   0.000e+00
   5.787e-01   6.510e-01   0.000e+00
   5.063e-01   6.510e-01   0.000e+00
   6.510e-01   5.787e-01   0.000e+00
   6.510e-01   6.510e-01   0.000e+00
   5.787e-01   6.510e-01   0.000e+00
   7.233e-01   5.787e-01   0.000e+00
   7.233e-01   6.510e-01   0.000e+00
   6.510e-01   6.510e-01   0.000e+00
   7.957e-01   5.787e-01   0.000e+00
   7.957e-01   6.510e-01   0.000e+00
   7.233e-01   6.510e-01   0.000e+00
   8.680e-01   5.787e-01   0.000e+00
   8.680e-01   6.510e-01   0.000e+00
   7.957e-01   6.510e-01   0.000e+00
   9.403e-01   5.787e-01   0.000e+00
   9.403e-01   6.510e-01   0.000e+00
   8.680e-01   6.510e-01   0.000e+00
   1.013e+00   5.787e-01   0.000e+00
   1.013e+00   6.510e-01   0.000e+00
   9.403e-01   6.510e-01   0.000e+00
   1.085e+00   5.787e-01   0.000e+00
   1.085e+00   6.510e-01   0.000e+00
   1.013e+00   6.510e-01   0.000e+00
  -1.013e+00   6.510e-01   0.000e+00
  -1.013e+00   7.233e-01   0.000e+00
  -1.085e+00   7.233e-01   0.000e+00
  -9.403e-01   6.510e-01   0.000e+00
  -9.403e-01   7.233e-01   0.000e+00
  -1.013e+00   7.233e-01   0.000e+00
  -8.680e-01   6.510e-01   0.000e+00
  -8.680e-01   7.233e-01   0.000e+00
  -9.403e-01   7.233e-01   0.000e+00
  -7.957e-01   6.510e-01   0.000e+00
  -7.957e-01   7.233e-01   0.000e+00
  -8.680e-01   7.233e-01   0.000e+00
  -7.233e-01   6.510e-01   0.000e+00
  -7.233e-01   7.233e-01   0.000e+00
  -7.957e-01   7.233e-01   0.000e+00
  -6.510e-01   6.510e-01   0.000e+00
  -6.510e-01   7.233e-01   0.000e+00
  -7.233e-01   7.233e-01   0.000e+00
  -5.787e-01   6.510e-01   0.000e+00
  -5.787e-01   7.233e-01   0.000e+00
  -6.510e-01   7.233e-01   0.000e+00
  -5.063e-01   6.510e-01   0.000e+00
  -5.063e-01   7.233e-01   0.000e+00
  -5.787e-01   7.233e-01   0.000e+00
  -4.340e-01   6.510e-01   0.000e+00
  -4.340e-01   7.233e-01   0.000e+00
  -5.063e-01   7.233e-01   0.000e+00
  -3.617e-01   6.510e-01   0.000e+00
  -3.617e-01   7.233e-01   0.000e+00
  -4.340e-01   7.233e-01   0.000e+00
  -2.893e-01   6.510e-01   0.000e+00
  -2.893e-01   7.233e-01   0.000e+00
  -3.617e-01   7.233e-01   0.000e+00
  -2.170e-01   6.510e-01   0.000e+00
  -2.170e-01   7.233e-01   0.000e+00
  -2.893e-01   7.233e-01   0.000e+00
  -1.447e-01   6.510e-01   0.000e+00
  -1.447e-01   7.233e-01   0.000e+00
  -2.170e-01   7.233e-01   0.000e+00
  -7.233e-02   6.510e-01   0.000e+00
  -7.233e-02   7.233e-01   0.000e+00
  -1.447e-01   7.233e-01   0.000e+00
   0.000e+00   6.510e-01   0.000e+00
   0.000e+00   6.872e-01   0.000e+00
  -3.617e-02   6.872e-01   0.000e+00
   0.000e+00   7.233e-01   0.000e+00
  -1.351e-02   7.233e-01   0.000e+00
  -2.639e-02   7.136e-01   0.000e+00
   0.000e+00   6.872e-01   0.000e+00
  -1.351e-02   7.233e-01   0.000e+00
  -2.639e-02   7.136e-01   0.000e+00
  -3.617e-02   7.233e-01   0.000e+00
  -2.639e-02   7.136e-01   0.000e+00
  -3.617e-02   7.029e-01   0.000e+00
  -3.617e-02   6.872e-01   0.000e+00
   0.000e+00   6.872e-01   0.000e+00
  -3.617e-02   7.233e-01   0.000e+00
  -2.639e-02   7.136e-01   0.000e+00
  -3.617e-02   7.029e-01   0.000e+00
  -3.617e-02   7.029e-01   0.000e+00
  -4.372e-02   6.947e-01   0.000e+00
  -3.617e-02   6.872e-01   0.000e+00
  -7.233e-02   7.233e-01   0.000e+00
  -3.617e-02   7.029e-01   0.000e+00
  -4.372e-02   6.947e-01   0.000e+00
  -3.617e-02   7.233e-01   0.000e+00
   7.233e-02   6.510e-01   0.000e+00
   7.233e-02   7.233e-01   0.000e+00
   0.000e+00   7.233e-01   0.000e+00
   1.447e-01   6.510e-01   0.000e+00
   1.447e-01   6.782e-01   0.000e+00
   1.387e-01   6.872e-01   0.000e+00
   1.085e-01   6.872e-01   0.000e+00
   1.447e-01   6.782e-01   0.000e+00
   1.387e-01   6.872e-01   0.000e+00
   1.447e-01   6.872e-01   0.000e+00
   1.447e-01   7.233e-01   0.000e+00
   1.085e-01   7.233e-01   0.000e+00
   1.447e-01   6.872e-01   0.000e+00
   1.387e-01   6.872e-01   0.000e+00
   1.085e-01   7.197e-01   0.000e+00
   1.085e-01   6.872e-01   0.000e+00
   1.085e-01   7.233e-01   0.000e+00
   1.387e-01   6.872e-01   0.000e+00
   1.085e-01   7.197e-01   0.000e+00
   1.447e-01   6.872e-01   0.000e+00
   7.233e-02   7.233e-01   0.000e+00
   1.085e-01   6.872e-01   0.000e+00
   1.085e-01   7.197e-01   0.000e+00
   1.034e-01   7.233e-01   0.000e+00
   1.085e-01   7.197e-01   0.000e+00
   1.034e-01   7.233e-01   0.000e+00
   1.085e-01   7.233e-01   0.000e+00
   2.170e-01   6.510e-01   0.000e+00
   2.170e-01   7.233e-01   0.000e+00
   1.447e-01   7.233e-01   0.000e+00
   2.893e-01   6.510e-01   0.000e+00
   2.893e-01   7.233e-01   0.000e+00
   2.170e-01   7.233e-01   0.000e+00
   3.617e-01   6.510e-01   0.000e+00
   3.617e-01   7.233e-01   0.000e+00
   2.893e-01   7.233e-01   0.000e+00
   4.340e-01   6.510e-01   0.000e+00
   4.340e-01   7.233e-01   0.000e+00
   3.617e-01   7.233e-01   0.000e+00
   5.063e-01   6.510e-01   0.000e+00
   5.063e-01   7.233e-01   0.000e+00
   4.340e-01   7.233e-01   0.000e+00
   5.787e-01   6.510e-01   0.000e+00
   5.787e-01   7.233e-01   0.000e+00
   5.063e-01   7.233e-01   0.000e+00
   6.510e-01   6.510e-01   0.000e+00
   6.510e-01   7.233e-01   0.000e+00
   5.787e-01   7.233e-01   0.000e+00
   7.233e-01   6.510e-01   0.000e+00
   7.233e-01   7.233e-01   0.000e+00
   6.510e-01   7.233e-01   0.000e+00
   7.957e-01   6.510e-01   0.000e+00
   7.957e-01   7.233e-01   0.000e+00
   7.233e-01   7.233e-01   0.000e+00
   8.680e-01   6.510e-01   0.000e+00
   8.680e-01   7.233e-01   0.000e+00
   7.957e-01   7.233e-01   0.000e+00
   9.403e-01   6.510e-01   0.000e+00
   9.403e-01   7.233e-01   0.000e+00
   8.680e-01   7.233e-01   0.000e+00
   1.013e+00   6.510e-01   0.000e+00
   1.013e+00   7.233e-01   0.000e+00
   9.403e-01   7.233e-01   0.000e+00
   1.085e+00   6.510e-01   0.000e+00
   1.085e+00   7.233e-01   0.000e+00
   1.013e+00   7.233e-01   0.000e+00
  -1.013e+00   7.233e-01   0.000e+00
  -1.013e+00   7.957e-01   0.000e+00
  -1.085e+00   7.957e-01   0.000e+00
  -9.403e-01   7.233e-01   0.000e+00
  -9.403e-01   7.957e-01   0.000e+00
  -1.013e+00   7.957e-01   0.000e+00
  -8.680e-01   7.233e-01   0.000e+00
  -8.680e-01   7.957e-01   0.000e+00
  -9.403e-01   7.957e-01   0.000e+00
  -7.957e-01   7.233e-01   0.000e+00
  -7.957e-01   7.957e-01   0.000e+00
  -8.680e-01   7.957e-01   0.000e+00
  -7.233e-01   7.233e-01   0.000e+00
  -7.233e-01   7.957e-01   0.000e+00
  -7.957e-01   7.957e-01   0.000e+00
  -6.510e-01   7.233e-01   0.000e+00
  -6.510e-01   7.957e-01   0.000e+00
  -7.233e-01   7.957e-01   0.000e+00
  -5.787e-01   7.233e-01   0.000e+00
  -5.787e-01   7.957e-01   0.000e+00
  -6.510e-01   7.957e-01   0.000e+00
  -5.063e-01   7.233e-01   0.000e+00
  -5.063e-01   7.957e-01   0.000e+00
  -5.787e-01   7.957e-01   0.000e+00
  -4.340e-01   7.233e-01   0.000e+00
  -4.340e-01   7.957e-01   0.000e+00
  -5.063e-01   7.957e-01   0.000e+00
  -3.617e-01   7.233e-01   0.000e+00
  -3.617e-01   7.957e-01   0.000e+00
  -4.340e-01   7.957e-01   0.000e+00
  -2.893e-01   7.233e-01   0.000e+00
  -2.893e-01   7.957e-01   0.000e+00
  -3.617e-01   7.957e-01   0.000e+00
  -2.170e-01   7.233e-01   0.000e+00
  -2.170e-01   7.957e-01   0.000e+00
  -2.893e-01   7.957e-01   0.000e+00
  -1.447e-01   7.233e-01   0.000e+00
  -1.447e-01   7.957e-01   0.000e+00
  -2.170e-01   7.957e-01   0.000e+00
  -7.233e-02   7.233e-01   0.000e+00
  -7.233e-02   7.957e-01   0.000e+00
  -1.447e-01   7.957e-01   0.000e+00
   0.000e+00   7.233e-01   0.000e+00
   0.000e+00   7.326e-01   0.000e+00
  -5.953e-03   7.293e-01   0.000e+00
   0.000e+00   7.326e-01   0.000e+00
  -5.953e-03   7.293e-01   0.000e+00
   0.000e+00   7.595e-01   0.000e+00
  -3.617e-02   7.595e-01   0.000e+00
   0.000e+00   7.957e-01   0.000e+00
  -3.617e-02   7.957e-01   0.000e+00
   0.000e+00   7.595e-01   0.000e+00
  -3.617e-02   7.957e-01   0.000e+00
  -3.617e-02   7.595e-01   0.000e+00
   0.000e+00   7.595e-01   0.000e+00
  -7.233e-02   7.957e-01   0.000e+00
  -3.617e-02   7.595e-01   0.000e+00
  -3.617e-02   7.957e-01   0.000e+00
   7.233e-02   7.233e-01   0.000e+00
   7.233e-02   7.401e-01   0.000e+00
   5.380e-02   7.419e-01   0.000e+00
   7.233e-02   7.401e-01   0.000e+00
   5.380e-02   7.419e-01   0.000e+00
   7.233e-02   7.595e-01   0.000e+00
   3.617e-02   7.595e-01   0.000e+00
   7.233e-02   7.957e-01   0.000e+00
   3.617e-02   7.957e-01   0.000e+00
   7.233e-02   7.595e-01   0.000e+00
   3.617e-02   7.957e-01   0.000e+00
   3.617e-02   7.595e-01   0.000e+00
   7.233e-02   7.595e-01   0.000e+00
   0.000e+00   7.957e-01   0.000e+00
   3.617e-02   7.595e-01   0.000e+00
   3.617e-02   7.957e-01   0.000e+00
   1.447e-01   7.233e-01   0.000e+00
   1.447e-01   7.957e-01   0.000e+00
   7.233e-02   7.957e-01   0.000e+00
   2.170e-01   7.233e-01   0.000e+00
   2.170e-01   7.957e-01   0.000e+00
   1.447e-01   7.957e-01   0.000e+00
   2.893e-01   7.233e-01   0.000e+00
   2.893e-01   7.957e-01   0.000e+00
   2.170e-01   7.957e-01   0.000e+00
   3.617e-01   7.233e-01   0.000e+00
   3.617e-01   7.957e-01   0.000e+00
   2.893e-01   7.957e-01   0.000e+00
   4.340e-01   7.233e-01   0.000e+00
   4.340e-01   7.957e-01   0.000e+00
   3.617e-01   7.957e-01   0.000e+00
   5.063e-01   7.233e-01   0.000e+00
   5.063e-01   7.957e-01   0.000e+00
   4.340e-01   7.957e-01   0.000e+00
   5.787e-01   7.233e-01   0.000e+00
   5.787e-01   7.957e-01   0.000e+00
   5.063e-01   7.957e-01   0.000e+00
   6.510e-01   7.233e-01   0.000e+00
   6.510e-01   7.957e-01   0.000e+00
   5.787e-01   7.957e-01   0.000e+00
   7.233e-01   7.233e-01   0.000e+00
   7.233e-01   7.957e-01   0.000e+00
   6.510e-01   7.957e-01   0.000e+00
   7.957e-01   7.233e-01   0.000e+00
   7.957e-01   7.957e-01   0.000e+00
   7.233e-01   7.957e-01   0.000e+00
   8.680e-01   7.233e-01   0.000e+00
   8.680e-01   7.957e-01   0.000e+00
   7.957e-01   7.957e-01   0.000e+00
   9.403e-01   7.233e-01   0.000e+00
   9.403e-01   7.957e-01   0.000e+00
   8.680e-01   7.957e-01   0.000e+00
   1.013e+00   7.233e-01   0.000e+00
   1.013e+00   7.957e-01   0.000e+00
   9.403e-01   7.957e-01   0.000e+00
   1.085e+00   7.233e-01   0.000e+00
   1.085e+00   7.957e-01   0.000e+00
   1.013e+00   7.957e-01   0.000e+00
  -1.013e+00   7.957e-01   0.000e+00
  -1.013e+00   8.680e-01   0.000e+00
  -1.085e+00   8.680e-01   0.000e+00
  -9.403e-01   7.957e-01   0.000e+00
  -9.403e-01   8.680e-01   0.000e+00
  -1.013e+00   8.680e-01   0.000e+00
  -8.680e-01   7.957e-01   0.000e+00
  -8.680e-01   8.680e-01   0.000e+00
  -9.403e-01   8.680e-01   0.000e+00
  -7.957e-01   7.957e-01   0.000e+00
  -7.957e-01   8.680e-01   0.000e+00
  -8.680e-01   8.680e-01   0.000e+00
  -7.233e-01   7.957e-01   0.000e+00
  -7.233e-01   8.680e-01   0.000e+00
  -7.957e-01   8.680e-01   0.000e+00
  -6.510e-01   7.957e-01   0.000e+00
  -6.510e-01   8.680e-01   0.000e+00
  -7.233e-01   8.680e-01   0.000e+00
  -5.787e-01   7.957e-01   0.000e+00
  -5.787e-01   8.680e-01   0.000e+00
  -6.510e-01   8.680e-01   0.000e+00
  -5.063e-01   7.957e-01   0.000e+00
  -5.063e-01   8.680e-01   0.000e+00
  -5.787e-01   8.680e-01   0.000e+00
  -4.340e-01   7.957e-01   0.000e+00
  -4.340e-01   8.680e-01   0.000e+00
  -5.063e-01   8.680e-01   0.000e+00
  -3.617e-01   7.957e-01   0.000e+00
  -3.617e-01   8.680e-01   0.000e+00
  -4.340e-01   8.680e-01   0.000e+00
  -2.893e-01   7.957e-01   0.000e+00
  -2.893e-01   8.680e-01   0.000e+00
  -3.617e-01   8.680e-01   0.000e+00
  -2.170e-01   7.957e-01   0.000e+00
  -2.170e-01   8.680e-01   0.000e+00
  -2.893e-01   8.680e-01   0.000e+00
  -1.447e-01   7.957e-01   0.000e+00
  -1.447e-01   8.680e-01   0.000e+00
  -2.170e-01   8.680e-01   0.000e+00
  -7.233e-02   7.957e-01   0.000e+00
  -7.233e-02   8.680e-01   0.000e+00
  -1.447e-01   8.680e-01   0.000e+00
   0.000e+00   7.957e-01   0.000e+00
   0.000e+00   8.680e-01   0.000e+00
  -7.233e-02   8.680e-01   0.000e+00
   7.233e-02   7.957e-01   0.000e+00
   7.233e-02   8.680e-01   0.000e+00
   0.000e+00   8.680e-01   0.000e+00
   1.447e-01   7.957e-01   0.000e+00
   1.447e-01   8.680e-01   0.000e+00
   7.233e-02   8.680e-01   0.000e+00
   2.170e-01   7.957e-01   0.000e+00
   2.170e-01   8.680e-01   0.000e+00
   1.447e-01   8.680e-01   0.000e+00
   2.893e-01   7.957e-01   0.000e+00
   2.893e-01   8.680e-01   0.000e+00
   2.170e-01   8.680e-01   0.000e+00
   3.617e-01   7.957e-01   0.000e+00
   3.617e-01   8.680e-01   0.000e+00
   2.893e-01   8.680e-01   0.000e+00
   4.340e-01   7.957e-01   0.000e+00
   4.340e-01   8.680e-01   0.000e+00
   3.617e-01   8.680e-01   0.000e+00
   5.063e-01   7.957e-01   0.000e+00
   5.063e-01   8.680e-01   0.000e+00
   4.340e-01   8.680e-01   0.000e+00
   5.787e-01   7.957e-01   0.000e+00
   5.787e-01   8.680e-01   0.000e+00
   5.063e-01   8.680e-01   0.000e+00
   6.510e-01   7.957e-01   0.000e+00
   6.510e-01   8.680e-01   0.000e+00
   5.787e-01   8.680e-01   0.000e+00
   7.233e-01   7.957e-01   0.000e+00
   7.233e-01   8.680e-01   0.000e+00
   6.510e-01   8.680e-01   0.000e+00
   7.957e-01   7.957e-01   0.000e+00
   7.957e-01   8.680e-01   0.000e+00
   7.233e-01   8.680e-01   0.000e+00
   8.680e-01   7.957e-01   0.000e+00
   8.680e-01   8.680e-01   0.000e+00
   7.957e-01   8.680e-01   0.000e+00
   9.403e-01   7.957e-01   0.000e+00
   9.403e-01   8.680e-01   0.000e+00
   8.680e-01   8.680e-01   0.000e+00
   1.013e+00   7.957e-01   0.000e+00
   1.013e+00   8.680e-01   0.000e+00
   9.403e-01   8.680e-01   0.000e+00
   1.085e+00   7.957e-01   0.000e+00
   1.085e+00   8.680e-01   0.000e+00
   1.013e+00   8.680e-01   0.000e+00
  -1.013e+00   8.680e-01   0.000e+00
  -1.013e+00   9.403e-01   0.000e+00
  -1.085e+00   9.403e-01   0.000e+00
  -9.403e-01   8.680e-01   0.000e+00
  -9.403e-01   9.403e-01   0.000e+00
  -1.013e+00   9.403e-01   0.000e+00
  -8.680e-01   8.680e-01   0.000e+00
  -8.680e-01   9.403e-01   0.000e+00
  -9.403e-01   9.403e-01   0.000e+00
  -7.957e-01   8.680e-01   0.000e+00
  -7.957e-01   9.403e-01   0.000e+00
  -8.680e-01   9.403e-01   0.000e+00
  -7.233e-01   8.680e-01   0.000e+00
  -7.233e-01   9.403e-01   0.000e+00
  -7.957e-01   9.403e-01   0.000e+00
  -6.510e-01   8.680e-01   0.000e+00
  -6.510e-01   9.403e-01   0.000e+00
  -7.233e-01   9.403e-01   0.000e+00
  -5.787e-01   8.680e-01   0.000e+00
  -5.787e-01   9.403e-01   0.000e+00
  -6.510e-01   9.403e-01   0.000e+00
  -5.063e-01   8.680e-01   0.000e+00
  -5.063e-01   9.403e-01   0.000e+00
  -5.787e-01   9.403e-01   0.000e+00
  -4.340e-01   8.680e-01   0.000e+00
  -4.340e-01   9.403e-01   0.000e+00
  -5.063e-01   9.403e-01   0.000e+00
  -3.617e-01   8.680e-01   0.000e+00
  -3.617e-01   9.403e-01   0.000e+00
  -4.340e-01   9.403e-01   0.000e+00
  -2.893e-01   8.680e-01   0.000e+00
  -2.893e-01   9.403e-01   0.000e+00
  -3.617e-01   9.403e-01   0.000e+00
  -2.170e-01   8.680e-01   0.000e+00
  -2.170e-01   9.403e-01   0.000e+00
  -2.893e-01   9.403e-01   0.000e+00
  -1.447e-01   8.680e-01   0.000e+00
  -1.447e-01   9.403e-01   0.000e+00
  -2.170e-01   9.403e-01   0.000e+00
  -7.233e-02   8.680e-01   0.000e+00
  -7.233e-02   9.403e-01   0.000e+00
  -1.447e-01   9.403e-01   0.000e+00
   0.000e+00   8.680e-01   0.000e+00
   0.000e+00   9.403e-01   0.000e+00
  -7.233e-02   9.403e-01   0.000e+00
   7.233e-02   8.680e-01   0.000e+00
   7.233e-02   9.403e-01   0.000e+00
   0.000e+00   9.403e-01   0.000e+00
   1.447e-01   8.680e-01   0.000e+00
   1.447e-01   9.403e-01   0.000e+00
   7.233e-02   9.403e-01   0.000e+00
   2.170e-01   8.680e-01   0.000e+00
   2.170e-01   9.403e-01   0.000e+00
   1.447e-01   9.403e-01   0.000e+00
   2.893e-01   8.680e-01   0.000e+00
   2.893e-01   9.403e-01   0.000e+00
   2.170e-01   9.403e-01   0.000e+00
   3.617e-01   8.680e-01   0.000e+00
   3.617e-01   9.403e-01   0.000e+00
   2.893e-01   9.403e-01   0.000e+00
   4.340e-01   8.680e-01   0.000e+00
   4.340e-01   9.403e-01   0.000e+00
   3.617e-01   9.403e-01   0.000e+00
   5.063e-01   8.680e-01   0.000e+00
   5.063e-01   9.403e-01   0.000e+00
   4.340e-01   9.403e-01   0.000e+00
   5.787e-01   8.680e-01   0.000e+00
   5.787e-01   9.403e-01   0.000e+00
   5.063e-01   9.403e-01   0.000e+00
   6.510e-01   8.680e-01   0.000e+00
   6.510e-01   9.403e-01   0.000e+00
   5.787e-01   9.403e-01   0.000e+00
   7.233e-01   8.680e-01   0.000e+00
   7.233e-01   9.403e-01   0.000e+00
   6.510e-01   9.403e-01   0.000e+00
   7.957e-01   8.680e-01   0.000e+00
   7.957e-01   9.403e-01   0.000e+00
   7.233e-01   9.403e-01   0.000e+00
   8.680e-01   8.680e-01   0.000e+00
   8.680e-01   9.403e-01   0.000e+00
   7.957e-01   9.403e-01   0.000e+00
   9.403e-01   8.680e-01   0.000e+00
   9.403e-01   9.403e-01   0.000e+00
   8.680e-01   9.403e-01   0.000e+00
   1.013e+00   8.680e-01   0.000e+00
   1.013e+00   9.403e-01   0.000e+00
   9.403e-01   9.403e-01   0.000e+00
   1.085e+00   8.680e-01   0.000e+00
   1.085e+00   9.403e-01   0.000e+00
   1.013e+00   9.403e-01   0.000e+00
  -1.013e+00   9.403e-01   0.000e+00
  -1.013e+00   1.013e+00   0.000e+00
  -1.085e+00   1.013e+00   0.000e+00
  -9.403e-01   9.403e-01   0.000e+00
  -9.403e-01   1.013e+00   0.000e+00
  -1.013e+00   1.013e+00   0.000e+00
  -8.680e-01   9.403e-01   0.000e+00
  -8.680e-01   1.013e+00   0.000e+00
  -9.403e-01   1.013e+00   0.000e+00
  -7.957e-01   9.403e-01   0.000e+00
  -7.957e-01   1.013e+00   0.000e+00
  -8.680e-01   1.013e+00   0.000e+00
  -7.233e-01   9.403e-01   0.000e+00
  -7.233e-01   1.013e+00   0.000e+00
  -7.957e-01   1.013e+00   0.000e+00
  -6.510e-01   9.403e-01   0.000e+00
  -6.510e-01   1.013e+00   0.000e+00
  -7.233e-01   1.013e+00   0.000e+00
  -5.787e-01   9.403e-01   0.000e+00
  -5.787e-01   1.013e+00   0.000e+00
  -6.510e-01   1.013e+00   0.000e+00
  -5.063e-01   9.403e-01   0.000e+00
  -5.063e-01   1.013e+00   0.000e+00
  -5.787e-01   1.013e+00   0.000e+00
  -4.340e-01   9.403e-01   0.000e+00
  -4.340e-01   1.013e+00   0.000e+00
  -5.063e-01   1.013e+00   0.000e+00
  -3.617e-01   9.403e-01   0.000e+00
  -3.617e-01   1.013e+00   0.000e+00
  -4.340e-01   1.013e+00   0.000e+00
  -2.893e-01   9.403e-01   0.000e+00
  -2.893e-01   1.013e+00   0.000e+00
  -3.617e-01   1.013e+00   0.000e+00
  -2.170e-01   9.403e-01   0.000e+00
  -2.170e-01   1.013e+00   0.000e+00
  -2.893e-01   1.013e+00   0.000e+00
  -1.447e-01   9.403e-01   0.000e+00
  -1.447e-01   1.013e+00   0.000e+00
  -2.170e-01   1.013e+00   0.000e+00
  -7.233e-02   9.403e-01   0.000e+00
  -7.233e-02   1.013e+00   0.000e+00
  -1.447e-01   1.013e+00   0.000e+00
   0.000e+00   9.403e-01   0.000e+00
   0.000e+00   1.013e+00   0.000e+00
  -7.233e-02   1.013e+00   0.000e+00
   7.233e-02   9.403e-01   0.000e+00
   7.233e-02   1.013e+00   0.000e+00
   0.000e+00   1.013e+00   0.000e+00
   1.447e-01   9.403e-01   0.000e+00
   1.447e-01   1.013e+00   0.000e+00
   7.233e-02   1.013e+00   0.000e+00
   2.170e-01   9.403e-01   0.000e+00
   2.170e-01   1.013e+00   0.000e+00
   1.447e-01   1.013e+00   0.000e+00
   2.893e-01   9.403e-01   0.000e+00
   2.893e-01   1.013e+00   0.000e+00
   2.170e-01   1.013e+00   0.000e+00
   3.617e-01   9.403e-01   0.000e+00
   3.617e-01   1.013e+00   0.000e+00
   2.893e-01   1.013e+00   0.000e+00
   4.340e-01   9.403e-01   0.000e+00
   4.340e-01   1.013e+00   0.000e+00
   3.617e-01   1.013e+00   0.000e+00
   5.063e-01   9.403e-01   0.000e+00
   5.063e-01   1.013e+00   0.000e+00
   4.340e-01   1.013e+00   0.000e+00
   5.787e-01   9.403e-01   0.000e+00
   5.787e-01   1.013e+00   0.000e+00
   5.063e-01   1.013e+00   0.000e+00
   6.510e-01   9.403e-01   0.000e+00
   6.510e-01   1.013e+00   0.000e+00
   5.787e-01   1.013e+00   0.000e+00
   7.233e-01   9.403e-01   0.000e+00
   7.233e-01   1.013e+00   0.000e+00
   6.510e-01   1.013e+00   0.000e+00
   7.957e-01   9.403e-01   0.000e+00
   7.957e-01   1.013e+00   0.000e+00
   7.233e-01   1.013e+00   0.000e+00
   8.680e-01   9.403e-01   0.000e+00
   8.680e-01   1.013e+00   0.000e+00
   7.957e-01   1.013e+00   0.000e+00
   9.403e-01   9.403e-01   0.000e+00
   9.403e-01   1.013e+00   0.000e+00
   8.680e-01   1.013e+00   0.000e+00
   1.013e+00   9.403e-01   0.000e+00
   1.013e+00   1.013e+00   0.000e+00
   9.403e-01   1.013e+00   0.000e+00
   1.085e+00   9.403e-01   0.000e+00
   1.085e+00   1.013e+00   0.000e+00
   1.013e+00   1.013e+00   0.000e+00
  -1.013e+00   1.013e+00   0.000e+00
  -1.013e+00   1.085e+00   0.000e+00
  -1.085e+00   1.085e+00   0.000e+00
  -9.403e-01   1.013e+00   0.000e+00
  -9.403e-01   1.085e+00   0.000e+00
  -1.013e+00   1.085e+00   0.000e+00
  -8.680e-01   1.013e+00   0.000e+00
  -8.680e-01   1.085e+00   0.000e+00
  -9.403e-01   1.085e+00   0.000e+00
  -7.957e-01   1.013e+00   0.000e+00
  -7.957e-01   1.085e+00   0.000e+00
  -8.680e-01   1.085e+00   0.000e+00
  -7.233e-01   1.013e+00   0.000e+00
  -7.233e-01   1.085e+00   0.000e+00
  -7.957e-01   1.085e+00   0.000e+00
  -6.510e-01   1.013e+00   0.000e+00
  -6.510e-01   1.085e+00   0.000e+00
  -7.233e-01   1.085e+00   0.000e+00
  -5.787e-01   1.013e+00   0.000e+00
  -5.787e-01   1.085e+00   0.000e+00
  -6.510e-01   1.085e+00   0.000e+00
  -5.063e-01   1.013e+00   0.000e+00
  -5.063e-01   1.085e+00   0.000e+00
  -5.787e-01   1.085e+00   0.000e+00
  -4.340e-01   1.013e+00   0.000e+00
  -4.340e-01   1.085e+00   0.000e+00
  -5.063e-01   1.085e+00   0.000e+00
  -3.617e-01   1.013e+00   0.000e+00
  -3.617e-01   1.085e+00   0.000e+00
  -4.340e-01   1.085e+00   0.000e+00
  -2.893e-01   1.013e+00   0.000e+00
  -2.893e-01   1.085e+00   0.000e+00
  -3.617e-01   1.085e+00   0.000e+00
  -2.170e-01   1.013e+00   0.000e+00
  -2.170e-01   1.085e+00   0.000e+00
  -2.893e-01   1.085e+00   0.000e+00
  -1.447e-01   1.013e+00   0.000e+00
  -1.447e-01   1.085e+00   0.000e+00
  -2.170e-01   1.085e+00   0.000e+00
  -7.233e-02   1.013e+00   0.000e+00
  -7.233e-02   1.085e+00   0.000e+00
  -1.447e-01   1.085e+00   0.000e+00
   0.000e+00   1.013e+00   0.000e+00
   0.000e+00   1.085e+00   0.000e+00
  -7.233e-02   1.085e+00   0.000e+00
   7.233e-02   1.013e+00   0.000e+00
   7.233e-02   1.085e+00   0.000e+00
   0.000e+00   1.085e+00   0.000e+00
   1.447e-01   1.013e+00   0.000e+00
   1.447e-01   1.085e+00   0.000e+00
   7.233e-02   1.085e+00   0.000e+00
   2.170e-01   1.013e+00   0.000e+00
   2.170e-01   1.085e+00   0.000e+00
   1.447e-01   1.085e+00   0.000e+00
   2.893e-01   1.013e+00   0.000e+00
   2.893e-01   1.085e+00   0.000e+00
   2.170e-01   1.085e+00   0.000e+00
   3.617e-01   1.013e+00   0.000e+00
   3.617e-01   1.085e+00   0.000e+00
   2.893e-01   1.085e+00   0.000e+00
   4.340e-01   1.013e+00   0.000e+00
   4.340e-01   1.085e+00   0.000e+00
   3.617e-01   1.085e+00   0.000e+00
   5.063e-01   1.013e+00   0.000e+00
   5.063e-01   1.085e+00   0.000e+00
   4.340e-01   1.085e+00   0.000e+00
   5.787e-01   1.013e+00   0.000e+00
   5.787e-01   1.085e+00   0.000e+00
   5.063e-01   1.085e+00   0.000e+00
   6.510e-01   1.013e+00   0.000e+00
   6.510e-01   1.085e+00   0.000e+00
   5.787e-01   1.085e+00   0.000e+00
   7.233e-01   1.013e+00   0.000e+00
   7.233e-01   1.085e+00   0.000e+00
   6.510e-01   1.085e+00   0.000e+00
   7.957e-01   1.013e+00   0.000e+00
   7.957e-01   1.085e+00   0.000e+00
   7.233e-01   1.085e+00   0.000e+00
   8.680e-01   1.013e+00   0.000e+00
   8.680e-01   1.085e+00   0.000e+00
   7.957e-01   1.085e+00   0.000e+00
   9.403e-01   1.013e+00   0.000e+00
   9.403e-01   1.085e+00   0.000e+00
   8.680e-01   1.085e+00   0.000e+00
   1.013e+00   1.013e+00   0.000e+00
   1.013e+00   1.085e+00   0.000e+00
   9.403e-01   1.085e+00   0.000e+00
   1.085e+00   1.013e+00   0.000e+00
   1.085e+00   1.085e+00   0.000e+00
   1.013e+00   1.085e+00   0.000e+00

CELLS 2578 10622
         3         0         1         2
         3         3         4         5
         3         6         7         8
         3         9        10        11
         3        12        13        14
         3        15        16        17
         3        18        19        20
         3        21        22        23
         3        24        25        26
         3        27        28        29
         3        30        31        32
         3        33        34        35
         3        36        37        38
         3        39        40        41
         3        42        43        44
         3        45        46        47
         3        48        49        50
         3        51        52        53
         3        54        55        56
         3        57        58        59
         3        60        61        62
         3        63        64        65
         3        66        67        68
         3        69        70        71
         3        72        73        74
         3        75        76        77
         3        78        79        80
         3        81        82        83
         3        84        85        86
         3        87        88        89
         3        90        91        92
         3        93        94        95
         3        96        97        98
         3        99       100       101
         3       102       103       104
         3       105       106       107
         3       108       109       110
         3       111       112       113
         3       114       115       116
         3       117       118       119
         3       120       121       122
         3       123       124       125
         3       126       127       128
         3       129       130       131
         3       132       133       134
         3       135       136       137
         3       138       139       140
         3       141       142       143
         3       144       145       146
         3       147       148       149
         3       150       151       152
         3       153       154       155
         3       156       157       158
         3       159       160       161
         3       162       163       164
         3       165       166       167
         3       168       169       170
         3       171       172       173
         3       174       175       176
         3       177       178       179
         3       180       181       182
         3       183       184       185
         3       186       187       188
         3       189       190       191
         3       192       193       194
         3       195       196       197
         3       198       199       200
         3       201       202       203
         3       204       205       206
         3       207       208       209
         3       210       211       212
         3       213       214       215
         3       216       217       218
         3       219       220       221
         3       222       223       224
         3       225       226       227
         3       228       229       230
         3       231       232       233
         3       234       235       236
         3       237       238       239
         3       240       241       242
         3       243       244       245
         3       246       247       248
         3       249       250       251
         3       252       253       254
         3       255       256       257
         3       258       259       260
         3       261       262       263
         3       264       265       266
         3       267       268       269
         3       270       271       272
         3       273       274       275
         3       276       277       278
         3       279       280       281
         3       282       283       284
         3       285       286       287
         3       288       289       290
         3       291       292       293
         3       294       295       296
         3       297       298       299
         3       300       301       302
         3       303       304       305
         3       306       307       308
         3       309       310       311
         3       312       313       314
         3       315       316       317
         3       318       319       320
         3       321       322       323
         3       324       325       326
         3       327       328       329
         3       330       331       332
         3       333       334       335
         3       336       337       338
         3       339       340       341
         3       342       343       344
         3       345       346       347
         3       348       349       350
         3       351       352       353
         3       354       355       356
         3       357       358       359
         3       360       361       362
         3       363       364       365
         3       366       367       368
         3       369       370       371
         3       372       373       374
         3       375       376       377
         3       378       379       380
         3       381       382       383
         3       384       385       386
         3       387       388       389
         3       390       391       392
         3       393       394       395
         3       396       397       398
         3       399       400       401
         3       402       403       404
         3       405       406       407
         3       408       409       410
         3       411       412       413
         3       414       415       416
         3       417       418       419
         3       420       421       422
         3       423       424       425
         3       426       427       428
         3       429       430       431
         3       432       433       434
         3       435       436       437
         3       438       439       440
         3       441       442       443
         3       444       445       446
         3       447       448       449
         3       450       451       452
         3       453       454       455
         3       456       457       458
         3       459       460       461
         3       462       463       464
         3       465       466       467
         3       468       469       470
         3       471       472       473
         3       474       475       476
         3       477       478       479
         3       480       481       482
         3       483       484       485
         3       486       487       488
         3       489       490       491
         3       492       493       494
         3       495       496       497
         3       498       499       500
         3       501       502       503
         3       504       505       506
         3       507       508       509
         3       510       511       512
         3       513       514       515
         3       516       517       518
         3       519       520       521
         3       522       523       524
         3       525       526       527
         3       528       529       530
         3       531       532       533
         3       534       535       536
         3       537       538       539
         3       540       541       542
         3       543       544       545
         3       546       547       548
         3       549       550       551
         3       552       553       554
         3       555       556       557
         3       558       559       560
         3       561       562       563
         3       564       565       566
         3       567       568       569
         3       570       571       572
         3       573       574       575
         3       576       577       578
         3       579       580       581
         3       582       583       584
         3       585       586       587
         3       588       589       590
         3       591       592       593
         3       594       595       596
         3       597       598       599
         3       600       601       602
         3       603       604       605
         3       606       607       608
         3       609       610       611
         3       612       613       614
         3       615       616       617
         3       618       619       620
         3       621       622       623
         3       624       625       626
         3       627       628       629
         3       630       631       632
         3       633       634       635
         3       636       637       638
         3       639       640       641
         3       642       643       644
         3       645       646       647
         3       648       649       650
         3       651       652       653
         3       654       655       656
         3       657       658       659
         3       660       661       662
         3       663       664       665
         3       666       667       668
         3       669       670       671
         4       672       674       675       673
         3       676       677       678
         3       679       680       681
         3       682       683       684
         3       685       686       687
         4       688       690       691       689
         3       692       693       694
         3       695       696       697
         3       698       699       700
         3       701       702       703
         4       704       706       707       705
         3       708       709       710
         3       711       712       713
         3       714       715       716
         3       717       718       719
         3       720       721       722
         3       723       724       725
         3       726       727       728
         3       729       730       731
         3       732       733       734
         3       735       736       737
         3       738       739       740
         4       741       743       744       742
         3       745       746       747
         3       748       749       750
         3       751       752       753
         3       754       755       756
         4       757       759       760       758
         3       761       762       763
         3       764       765       766
         3       767       768       769
         3       770       771       772
         3       773       774       775
         3       776       777       778
         3       779       780       781
         3       782       783       784
         3       785       786       787
         3       788       789       790
         3       791       792       793
         3       794       795       796
         3       797       798       799
         3       800       801       802
         3       803       804       805
         3       806       807       808
         3       809       810       811
         3       812       813       814
         4       815       816       818       817
         3       819       820       821
         3       822       823       824
         4       825       826       827       828
         3       829       830       831
         4       832       833       834       835
         3       836       837       838
         3       839       840       841
         4       842       843       844       845
         3       846       847       848
         3       849       850       851
         4       852       853       854       855
         4       856       857       858       859
         3       860       861       862
         3       863       864       865
         3       866       867       868
         3       869       870       871
         3       872       873       874
         3       875       876       877
         4       878       880       881       879
         3       882       883       884
         3       885       886       887
         3       888       889       890
         3       891       892       893
         3       894       895       896
         3       897       898       899
         4       900       901       902       903
         3       904       905       906
         4       907       908       909       910
         4       911       913       912       914
         3       915       916       917
         4       918       920       921       919
         3       922       923       924
         3       925       926       927
         3       928       929       930
         3       931       932       933
         3       934       935       936
         3       937       938       939
         4       940       942       943       941
         3       944       945       946
         3       947       948       949
         3       950       951       952
         3       953       954       955
         3       956       957       958
         3       959       960       961
         3       962       963       964
         3       965       966       967
         3       968       969       970
         3       971       972       973
         3       974       975       976
         3       977       978       979
         3       980       981       982
         3       983       984       985
         3       986       987       988
         3       989       990       991
         3       992       993       994
         3       995       996       997
         3       998       999      1000
         3      1001      1002      1003
         3      1004      1005      1006
         4      1007      1008      1009      1010
         3      1011      1012      1013
         4      1014      1016      1015      1017
         3      1018      1019      1020
         3      1021      1022      1023
         4      1024      1025      1026      1027
         3      1028      1029      1030
         3      1031      1032      1033
         3      1034      1035      1036
         4      1037      1038      1039      1040
         3      1041      1042      1043
         3      1044      1045      1046
         4      1047      1048      1049      1050
         4      1051      1052      1053      1054
         3      1055      1056      1057
         3      1058      1059      1060
         3      1061      1062      1063
         3      1064      1065      1066
         3      1067      1068      1069
         3      1070      1071      1072
         4      1073      1075      1076      1074
         3      1077      1078      1079
         3      1080      1081      1082
         3      1083      1084      1085
         4      1086      1087      1089      1088
         3      1090      1091      1092
         3      1093      1094      1095
         4      1096      1097      1098      1099
         4      1100      1102      1101      1103
         3      1104      1105      1106
         3      1107      1108      1109
         3      1110      1111      1112
         3      1113      1114      1115
         3      1116      1117      1118
         4      1119      1121      1122      1120
         3      1123      1124      1125
         3      1126      1127      1128
         3      1129      1130      1131
         3      1132      1133      1134
         3      1135      1136      1137
         3      1138      1139      1140
         3      1141      1142      1143
         3      1144      1145      1146
         3      1147      1148      1149
         3      1150      1151      1152
         3      1153      1154      1155
         3      1156      1157      1158
         3      1159      1160      1161
         3      1162      1163      1164
         3      1165      1166      1167
         3      1168      1169      1170
         3      1171      1172      1173
         3      1174      1175      1176
         3      1177      1178      1179
         3      1180      1181      1182
         3      1183      1184      1185
         4      1186      1187      1188      1189
         4      1190      1191      1192      1193
         3      1194      1195      1196
         3      1197      1198      1199
         4      1200      1201      1202      1203
         3      1204      1205      1206
         3      1207      1208      1209
         3      1210      1211      1212
         3      1213      1214      1215
         3      1216      1217      1218
         4      1219      1220      1221      1222
         3      1223      1224      1225
         3      1226      1227      1228
         4      1229      1230      1231      1232
         4      1233      1234      1235      1236
         3      1237      1238      1239
         3      1240      1241      1242
         3      1243      1244      1245
         3      1246      1247      1248
         3      1249      1250      1251
         3      1252      1253      1254
         4      1255      1257      1258      1256
         3      1259      1260      1261
         3      1262      1263      1264
         4      1265      1267      1268      1266
         3      1269      1270      1271
         3      1272      1273      1274
         3      1275      1276      1277
         3      1278      1279      1280
         3      1281      1282      1283
         3      1284      1285      1286
         3      1287      1288      1289
         4      1290      1292      1293      1291
         3      1294      1295      1296
         3      1297      1298      1299
         3      1300      1301      1302
         3      1303      1304      1305
         3      1306      1307      1308
         3      1309      1310      1311
         3      1312      1313      1314
         3      1315      1316      1317
         3      1318      1319      1320
         3      1321      1322      1323
         3      1324      1325      1326
         3      1327      1328      1329
         3      1330      1331      1332
         3      1333      1334      1335
         3      1336      1337      1338
         3      1339      1340      1341
         3      1342      1343      1344
         3      1345      1346      1347
         3      1348      1349      1350
         3      1351      1352      1353
         3      1354      1355      1356
         3      1357      1358      1359
         4      1360      1362      1363      1361
         3      1364      1365      1366
         3      1367      1368      1369
         3      1370      1371      1372
         3      1373      1374      1375
         3      1376      1377      1378
         4      1379      1381      1382      1380
         3      1383      1384      1385
         3      1386      1387      1388
         3      1389      1390      1391
         3      1392      1393      1394
         3      1395      1396      1397
         4      1398      1399      1400      1401
         3      1402      1403      1404
         3      1405      1406      1407
         4      1408      1409      1410      1411
         4      1412      1413      1414      1415
         3      1416      1417      1418
         3      1419      1420      1421
         4      1422      1424      1425      1423
         3      1426      1427      1428
         3      1429      1430      1431
         3      1432      1433      1434
         3      1435      1436      1437
         3      1438      1439      1440
         3      1441      1442      1443
         3      1444      1445      1446
         3      1447      1448      1449
         4      1450      1451      1452      1453
         3      1454      1455      1456
         3      1457      1458      1459
         3      1460      1461      1462
         4      1463      1465      1464      1466
         3      1467      1468      1469
         4      1470      1472      1471      1473
         3      1474      1475      1476
         3      1477      1478      1479
         3      1480      1481      1482
         3      1483      1484      1485
         3      1486      1487      1488
         3      1489      1490      1491
         3      1492      1493      1494
         3      1495      1496      1497
         3      1498      1499      1500
         3      1501      1502      1503
         3      1504      1505      1506
         3      1507      1508      1509
         3      1510      1511      1512
         3      1513      1514      1515
         3      1516      1517      1518
         3      1519      1520      1521
         3      1522      1523      1524
         3      1525      1526      1527
         3      1528      1529      1530
         4      1531      1532      1533      1534
         4      1535      1536      1537      1538
         3      1539      1540      1541
         3      1542      1543      1544
         4      1545      1546      1547      1548
         3      1549      1550      1551
         3      1552      1553      1554
         3      1555      1556      1557
         3      1558      1559      1560
         3      1561      1562      1563
         3      1564      1565      1566
         3      1567      1568      1569
         3      1570      1571      1572
         3      1573      1574      1575
         3      1576      1577      1578
         3      1579      1580      1581
         4      1582      1584      1585      1583
         3      1586      1587      1588
         3      1589      1590      1591
         3      1592      1593      1594
         3      1595      1596      1597
         3      1598      1599      1600
         3      1601      1602      1603
         3      1604      1605      1606
         3      1607      1608      1609
         3      1610      1611      1612
         3      1613      1614      1615
         3      1616      1617      1618
         3      1619      1620      1621
         3      1622      1623      1624
         3      1625      1626      1627
         3      1628      1629      1630
         3      1631      1632      1633
         3      1634      1635      1636
         3      1637      1638      1639
         3      1640      1641      1642
         3      1643      1644      1645
         3      1646      1647      1648
         3      1649      1650      1651
         3      1652      1653      1654
         3      1655      1656      1657
         4      1658      1660      1661      1659
         3      1662      1663      1664
         3      1665      1666      1667
         4      1668      1669      1671      1670
         3      1672      1673      1674
         3      1675      1676      1677
         4      1678      1680      1679      1681
         3      1682      1683      1684
         3      1685      1686      1687
         4      1688      1689      1690      1691
         3      1692      1693      1694
         3      1695      1696      1697
         3      1698      1699      1700
         3      1701      1702      1703
         3      1704      1705      1706
         3      1707      1708      1709
         3      1710      1711      1712
         3      1713      1714      1715
         3      1716      1717      1718
         4      1719      1721      1722      1720
         3      1723      1724      1725
         3      1726      1727      1728
         3      1729      1730      1731
         3      1732      1733      1734
         3      1735      1736      1737
         3      1738      1739      1740
         3      1741      1742      1743
         3      1744      1745      1746
         3      1747      1748      1749
         3      1750      1751      1752
         3      1753      1754      1755
         3      1756      1757      1758
         3      1759      1760      1761
         3      1762      1763      1764
         3      1765      1766      1767
         3      1768      1769      1770
         3      1771      1772      1773
         3      1774      1775      1776
         3      1777      1778      1779
         3      1780      1781      1782
         3      1783      1784      1785
         3      1786      1787      1788
         3      1789      1790      1791
         3      1792      1793      1794
         3      1795      1796      1797
         4      1798      1800      1801      1799
         3      1802      1803      1804
         3      1805      1806      1807
         4      1808      1810      1811      1809
         3      1812      1813      1814
         3      1815      1816      1817
         3      1818      1819      1820
         3      1821      1822      1823
         3      1824      1825      1826
         3      1827      1828      1829
         3      1830      1831      1832
         3      1833      1834      1835
         4      1836      1838      1839      1837
         3      1840      1841      1842
         3      1843      1844      1845
         3      1846      1847      1848
         3      1849      1850      1851
         3      1852      1853      1854
         3      1855      1856      1857
         3      1858      1859      1860
         4      1861      1863      1864      1862
         3      1865      1866      1867
         3      1868      1869      1870
         3      1871      1872      1873
         3      1874      1875      1876
         3      1877      1878      1879
         3      1880      1881      1882
         3      1883      1884      1885
         3      1886      1887      1888
         3      1889      1890      1891
         3      1892      1893      1894
         3      1895      1896      1897
         3      1898      1899      1900
         3      1901      1902      1903
         3      1904      1905      1906
         3      1907      1908      1909
         3      1910      1911      1912
         3      1913      1914      1915
         3      1916      1917      1918
         3      1919      1920      1921
         4      1922      1923      1925      1924
         3      1926      1927      1928
         4      1929      1930      1931      1932
         4      1933      1934      1935      1936
         3      1937      1938      1939
         3      1940      1941      1942
         4      1943      1945      1946      1944
         3      1947      1948      1949
         3      1950      1951      1952
         3      1953      1954      1955
         3      1956      1957      1958
         3      1959      1960      1961
         3      1962      1963      1964
         3      1965      1966      1967
         3      1968      1969      1970
         3      1971      1972      1973
         3      1974      1975      1976
         3      1977      1978      1979
         3      1980      1981      1982
         3      1983      1984      1985
         3      1986      1987      1988
         4      1989      1991      1992      1990
         3      1993      1994      1995
         3      1996      1997      1998
         3      1999      2000      2001
         3      2002      2003      2004
         4      2005      2006      2008      2007
         3      2009      2010      2011
         4      2012      2013      2014      2015
         4      2016      2017      2018      2019
         3      2020      2021      2022
         3      2023      2024      2025
         3      2026      2027      2028
         4      2029      2030      2032      2031
         3      2033      2034      2035
         3      2036      2037      2038
         4      2039      2041      2040      2042
         4      2043      2044      2045      2046
         3      2047      2048      2049
         3      2050      2051      2052
         3      2053      2054      2055
         3      2056      2057      2058
         3      2059      2060      2061
         4      2062      2064      2065      2063
         3      2066      2067      2068
         3      2069      2070      2071
         3      2072      2073      2074
         3      2075      2076      2077
         3      2078      2079      2080
         3      2081      2082      2083
         3      2084      2085      2086
         3      2087      2088      2089
         3      2090      2091      2092
         3      2093      2094      2095
         3      2096      2097      2098
         3      2099      2100      2101
         3      2102      2103      2104
         3      2105      2106      2107
         3      2108      2109      2110
         4      2111      2112      2113      2114
         3      2115      2116      2117
         4      2118      2119      2120      2121
         4      2122      2124      2123      2125
         3      2126      2127      2128
         4      2129      2131      2132      2130
         3      2133      2134      2135
         3      2136      2137      2138
         3      2139      2140      2141
         3      2142      2143      2144
         3      2145      2146      2147
         3      2148      2149      2150
         3      2151      2152      2153
         3      2154      2155      2156
         3      2157      2158      2159
         3      2160      2161      2162
         3      2163      2164      2165
         3      2166      2167      2168
         3      2169      2170      2171
         3      2172      2173      2174
         3      2175      2176      2177
         3      2178      2179      2180
         3      2181      2182      2183
         3      2184      2185      2186
         4      2187      2188      2189      2190
         3      2191      2192      2193
         3      2194      2195      2196
         4      2197      2198      2199      2200
         4      2201      2202      2203      2204
         3      2205      2206      2207
         3      2208      2209      2210
         3      2211      2212      2213
         3      2214      2215      2216
         3      2217      2218      2219
         3      2220      2221      2222
         4      2223      2225      2226      2224
         3      2227      2228      2229
         3      2230      2231      2232
         3      2233      2234      2235
         3      2236      2237      2238
         3      2239      2240      2241
         3      2242      2243      2244
         3      2245      2246      2247
         3      2248      2249      2250
         3      2251      2252      2253
         3      2254      2255      2256
         3      2257      2258      2259
         3      2260      2261      2262
         3      2263      2264      2265
         4      2266      2268      2269      2267
         3      2270      2271      2272
         3      2273      2274      2275
         3      2276      2277      2278
         3      2279      2280      2281
         3      2282      2283      2284
         3      2285      2286      2287
         3      2288      2289      2290
         3      2291      2292      2293
         3      2294      2295      2296
         3      2297      2298      2299
         3      2300      2301      2302
         3      2303      2304      2305
         3      2306      2307      2308
         3      2309      2310      2311
         3      2312      2313      2314
         3      2315      2316      2317
         3      2318      2319      2320
         3      2321      2322      2323
         3      2324      2325      2326
         4      2327      2328      2329      2330
         3      2331      2332      2333
         3      2334      2335      2336
         4      2337      2338      2339      2340
         4      2341      2342      2343      2344
         3      2345      2346      2347
         3      2348      2349      2350
         3      2351      2352      2353
         3      2354      2355      2356
         3      2357      2358      2359
         3      2360      2361      2362
         3      2363      2364      2365
         3      2366      2367      2368
         3      2369      2370      2371
         3      2372      2373      2374
         3      2375      2376      2377
         3      2378      2379      2380
         3      2381      2382      2383
         3      2384      2385      2386
         4      2387      2388      2389      2390
         3      2391      2392      2393
         4      2394      2396      2395      2397
         3      2398      2399      2400
         3      2401      2402      2403
         4      2404      2405      2406      2407
         3      2408      2409      2410
         3      2411      2412      2413
         3      2414      2415      2416
         3      2417      2418      2419
         3      2420      2421      2422
         3      2423      2424      2425
         3      2426      2427      2428
         3      2429      2430      2431
         3      2432      2433      2434
         4      2435      2437      2438      2436
         3      2439      2440      2441
         3      2442      2443      2444
         3      2445      2446      2447
         3      2448      2449      2450
         3      2451      2452      2453
         3      2454      2455      2456
         3      2457      2458      2459
         3      2460      2461      2462
         3      2463      2464      2465
         3      2466      2467      2468
         3      2469      2470      2471
         3      2472      2473      2474
         4      2475      2477      2478      2476
         3      2479      2480      2481
         3      2482      2483      2484
         3      2485      2486      2487
         3      2488      2489      2490
         3      2491      2492      2493
         3      2494      2495      2496
         3      2497      2498      2499
         3      2500      2501      2502
         3      2503      2504      2505
         3      2506      2507      2508
         3      2509      2510      2511
         3      2512      2513      2514
         3      2515      2516      2517
         3      2518      2519      2520
         3      2521      2522      2523
         3      2524      2525      2526
         4      2527      2529      2530      2528
         3      2531      2532      2533
         3      2534      2535      2536
         4      2537      2538      2540      2539
         3      2541      2542      2543
         3      2544      2545      2546
         4      2547      2549      2548      2550
         3      2551      2552      2553
         3      2554      2555      2556
         4      2557      2558      2559      2560
         3      2561      2562      2563
         3      2564      2565      2566
         3      2567      2568      2569
         4      2570      2572      2573      2571
         3      2574      2575      2576
         3      2577      2578      2579
         3      2580      2581      2582
         3      2583      2584      2585
         4      2586      2588      2589      2587
         3      2590      2591      2592
         3      2593      2594      2595
         3      2596      2597      2598
         3      2599      2600      2601
         4      2602      2604      2605      2603
         3      2606      2607      2608
         4      2609      2610      2612      2611
         3      2613      2614      2615
         4      2616      2617      2618      2619
         3      2620      2621      2622
         3      2623      2624      2625
         4      2626      2627      2628      2629
         3      2630      2631      2632
         4      2633      2634      2636      2635
         3      2637      2638      2639
         3      2640      2641      2642
         4      2643      2644      2646      2645
         3      2647      2648      2649
         4      2650      2651      2652      2653
         3      2654      2655      2656
         3      2657      2658      2659
         4      2660      2661      2662      2663
         3      2664      2665      2666
         4      2667      2669      2668      2670
         3      2671      2672      2673
         3      2674      2675      2676
         4      2677      2678      2679      2680
         3      2681      2682      2683
         3      2684      2685      2686
         3      2687      2688      2689
         3      2690      2691      2692
         3      2693      2694      2695
         4      2696      2698      2699      2697
         3      2700      2701      2702
         4      2703      2705      2706      2704
         3      2707      2708      2709
         3      2710      2711      2712
         4      2713      2714      2716      2715
         3      2717      2718      2719
         4      2720      2721      2722      2723
         3      2724      2725      2726
         3      2727      2728      2729
         4      2730      2731      2732      2733
         3      2734      2735      2736
         4      2737      2738      2740      2739
         3      2741      2742      2743
         3      2744      2745      2746
         4      2747      2749      2748      2750
         3      2751      2752      2753
         3      2754      2755      2756
         4      2757      2758      2759      2760
         3      2761      2762      2763
         3      2764      2765      2766
         3      2767      2768      2769
         4      2770      2772      2773      2771
         3      2774      2775      2776
         3      2777      2778      2779
         3      2780      2781      2782
         3      2783      2784      2785
         4      2786      2788      2789      2787
         3      2790      2791      2792
         3      2793      2794      2795
         3      2796      2797      2798
         3      2799      2800      2801
         4      2802      2804      2805      2803
         3      2806      2807      2808
         4      2809      2810      2812      2811
         3      2813      2814      2815
         3      2816      2817      2818
         4      2819      2820      2822      2821
         3      2823      2824      2825
         4      2826      2827      2828      2829
         3      2830      2831      2832
         3      2833      2834      2835
         3      2836      2837      2838
         3      2839      2840      2841
         3      2842      2843      2844
         3      2845      2846      2847
         3      2848      2849      2850
         3      2851      2852      2853
         3      2854      2855      2856
         3      2857      2858      2859
         3      2860      2861      2862
         3      2863      2864      2865
         3      2866      2867      2868
         3      2869      2870      2871
         3      2872      2873      2874
         3      2875      2876      2877
         3      2878      2879      2880
         3      2881      2882      2883
         3      2884      2885      2886
         3      2887      2888      2889
         4      2890      2891      2892      2893
         3      2894      2895      2896
         4      2897      2899      2898      2900
         3      2901      2902      2903
         3      2904      2905      2906
         4      2907      2908      2909      2910
         3      2911      2912      2913
         3      2914      2915      2916
         3      2917      2918      2919
         3      2920      2921      2922
         4      2923      2925      2926      2924
         3      2927      2928      2929
         3      2930      2931      2932
         3      2933      2934      2935
         3      2936      2937      2938
         3      2939      2940      2941
         3      2942      2943      2944
         3      2945      2946      2947
         3      2948      2949      2950
         3      2951      2952      2953
         3      2954      2955      2956
         3      2957      2958      2959
         3      2960      2961      2962
         3      2963      2964      2965
         3      2966      2967      2968
         3      2969      2970      2971
         3      2972      2973      2974
         3      2975      2976      2977
         3      2978      2979      2980
         3      2981      2982      2983
         3      2984      2985      2986
         3      2987      2988      2989
         3      2990      2991      2992
         3      2993      2994      2995
         3      2996      2997      2998
         3      2999      3000      3001
         3      3002      3003      3004
         3      3005      3006      3007
         3      3008      3009      3010
         3      3011      3012      3013
         4      3014      3015      3016      3017
         3      3018      3019      3020
         4      3021      3023      3022      3024
         3      3025      3026      3027
         3      3028      3029      3030
         4      3031      3032      3033      3034
         3      3035      3036      3037
         3      3038      3039      3040
         3      3041      3042      3043
         3      3044      3045      3046
         4      3047      3049      3050      3048
         3      3051      3052      3053
         3      3054      3055      3056
         3      3057      3058      3059
         3      3060      3061      3062
         3      3063      3064      3065
         3      3066      3067      3068
         3      3069      3070      3071
         3      3072      3073      3074
         3      3075      3076      3077
         3      3078      3079      3080
         3      3081      3082      3083
         3      3084      3085      3086
         3      3087      3088      3089
         3      3090      3091      3092
         3      3093      3094      3095
         3      3096      3097      3098
         3      3099      3100      3101
         3      3102      3103      3104
         3      3105      3106      3107
         3      3108      3109      3110
         3      3111      3112      3113
         3      3114      3115      3116
         3      3117      3118      3119
         3      3120      3121      3122
         3      3123      3124      3125
         3      3126      3127      3128
         3      3129      3130      3131
         3      3132      3133      3134
         3      3135      3136      3137
         4      3138      3139      3140      3141
         4      3142      3143      3144      3145
         3      3146      3147      3148
         3      3149      3150      3151
         4      3152      3153      3154      3155
         3      3156      3157      3158
         3      3159      3160      3161
         3      3162      3163      3164
         3      3165      3166      3167
         3      3168      3169      3170
         4      3171      3173      3174      3172
         3      3175      3176      3177
         3      3178      3179      3180
         3      3181      3182      3183
         3      3184      3185      3186
         3      3187      3188      3189
         3      3190      3191      3192
         3      3193      3194      3195
         3      3196      3197      3198
         3      3199      3200      3201
         3      3202      3203      3204
         3      3205      3206      3207
         3      3208      3209      3210
         3      3211      3212      3213
         3      3214      3215      3216
         3      3217      3218      3219
         3      3220      3221      3222
         3      3223      3224      3225
         3      3226      3227      3228
         3      3229      3230      3231
         3      3232      3233      3234
         3      3235      3236      3237
         3      3238      3239      3240
         3      3241      3242      3243
         3      3244      3245      3246
         3      3247      3248      3249
         3      3250      3251      3252
         3      3253      3254      3255
         3      3256      3257      3258
         3      3259      3260      3261
         3      3262      3263      3264
         4      3265      3267      3268      3266
         3      3269      3270      3271
         3      3272      3273      3274
         3      3275      3276      3277
         3      3278      3279      3280
         3      3281      3282      3283
         4      3284      3286      3287      3285
         3      3288      3289      3290
         3      3291      3292      3293
         3      3294      3295      3296
         3      3297      3298      3299
         3      3300      3301      3302
         4      3303      3304      3306      3305
         4      3307      3308      3309      3310
         3      3311      3312      3313
         4      3314      3315      3316      3317
         3      3318      3319      3320
         3      3321      3322      3323
         3      3324      3325      3326
         3      3327      3328      3329
         3      3330      3331      3332
         3      3333      3334      3335
         3      3336      3337      3338
         3      3339      3340      3341
         3      3342      3343      3344
         3      3345      3346      3347
         3      3348      3349      3350
         3      3351      3352      3353
         3      3354      3355      3356
         3      3357      3358      3359
         3      3360      3361      3362
         3      3363      3364      3365
         3      3366      3367      3368
         3      3369      3370      3371
         3      3372      3373      3374
         3      3375      3376      3377
         3      3378      3379      3380
         3      3381      3382      3383
         3      3384      3385      3386
         3      3387      3388      3389
         3      3390      3391      3392
         3      3393      3394      3395
         3      3396      3397      3398
         3      3399      3400      3401
         4      3402      3403      3404      3405
         3      3406      3407      3408
         4      3409      3411      3410      3412
         3      3413      3414      3415
         3      3416      3417      3418
         4      3419      3420      3421      3422
         3      3423      3424      3425
         3      3426      3427      3428
         3      3429      3430      3431
         4      3432      3434      3435      3433
         3      3436      3437      3438
         3      3439      3440      3441
         3      3442      3443      3444
         3      3445      3446      3447
         3      3448      3449      3450
         3      3451      3452      3453
         3      3454      3455      3456
         3      3457      3458      3459
         3      3460      3461      3462
         3      3463      3464      3465
         3      3466      3467      3468
         3      3469      3470      3471
         3      3472      3473      3474
         3      3475      3476      3477
         3      3478      3479      3480
         3      3481      3482      3483
         3      3484      3485      3486
         3      3487      3488      3489
         3      3490      3491      3492
         3      3493      3494      3495
         3      3496      3497      3498
         3      3499      3500      3501
         3      3502      3503      3504
         3      3505      3506      3507
         3      3508      3509      3510
         3      3511      3512      3513
         3      3514      3515      3516
         3      3517      3518      3519
         3      3520      3521      3522
         3      3523      3524      3525
         3      3526      3527      3528
         4      3529      3531      3532      3530
         3      3533      3534      3535
         3      3536      3537      3538
         4      3539      3540      3542      3541
         3      3543      3544      3545
         4      3546      3547      3548      3549
         3      3550      3551      3552
         3      3553      3554      3555
         4      3556      3557      3558      3559
         3      3560      3561      3562
         3      3563      3564      3565
         4      3566      3568      3569      3567
         3      3570      3571      3572
         3      3573      3574      3575
         3      3576      3577      3578
         3      3579      3580      3581
         3      3582      3583      3584
         3      3585      3586      3587
         3      3588      3589      3590
         3      3591      3592      3593
         3      3594      3595      3596
         3      3597      3598      3599
         3      3600      3601      3602
         3      3603      3604      3605
         3      3606      3607      3608
         3      3609      3610      3611
         3      3612      3613      3614
         3      3615      3616      3617
         3      3618      3619      3620
         3      3621      3622      3623
         3      3624      3625      3626
         3      3627      3628      3629
         3      3630      3631      3632
         3      3633      3634      3635
         3      3636      3637      3638
         3      3639      3640      3641
         3      3642      3643      3644
         3      3645      3646      3647
         3      3648      3649      3650
         3      3651      3652      3653
         3      3654      3655      3656
         3      3657      3658      3659
         3      3660      3661      3662
         3      3663      3664      3665
         3      3666      3667      3668
         3      3669      3670      3671
         3      3672      3673      3674
         3      3675      3676      3677
         3      3678      3679      3680
         3      3681      3682      3683
         3      3684      3685      3686
         3      3687      3688      3689
         3      3690      3691      3692
         3      3693      3694      3695
         3      3696      3697      3698
         3      3699      3700      3701
         3      3702      3703      3704
         3      3705      3706      3707
         3      3708      3709      3710
         3      3711      3712      3713
         3      3714      3715      3716
         3      3717      3718      3719
         3      3720      3721      3722
         3      3723      3724      3725
         3      3726      3727      3728
         3      3729      3730      3731
         3      3732      3733      3734
         3      3735      3736      3737
         3      3738      3739      3740
         3      3741      3742      3743
         3      3744      3745      3746
         3      3747      3748      3749
         3      3750      3751      3752
         3      3753      3754      3755
         3      3756      3757      3758
         3      3759      3760      3761
         3      3762      3763      3764
         3      3765      3766      3767
         3      3768      3769      3770
         3      3771      3772      3773
         3      3774      3775      3776
         3      3777      3778      3779
         3      3780      3781      3782
         3      3783      3784      3785
         3      3786      3787      3788
         3      3789      3790      3791
         3      3792      3793      3794
         3      3795      3796      3797
         3      3798      3799      3800
         3      3801      3802      3803
         3      3804      3805      3806
         3      3807      3808      3809
         3      3810      3811      3812
         3      3813      3814      3815
         3      3816      3817      3818
         3      3819      3820      3821
         3      3822      3823      3824
         3      3825      3826      3827
         3      3828      3829      3830
         3      3831      3832      3833
         3      3834      3835      3836
         3      3837      3838      3839
         3      3840      3841      3842
         3      3843      3844      3845
         3      3846      3847      3848
         3      3849      3850      3851
         3      3852      3853      3854
         3      3855      3856      3857
         3      3858      3859      3860
         3      3861      3862      3863
         3      3864      3865      3866
         3      3867      3868      3869
         3      3870      3871      3872
         3      3873      3874      3875
         3      3876      3877      3878
         3      3879      3880      3881
         3      3882      3883      3884
         3      3885      3886      3887
         3      3888      3889      3890
         3      3891      3892      3893
         3      3894      3895      3896
         3      3897      3898      3899
         3      3900      3901      3902
         3      3903      3904      3905
         3      3906      3907      3908
         3      3909      3910      3911
         3      3912      3913      3914
         3      3915      3916      3917
         3      3918      3919      3920
         3      3921      3922      3923
         3      3924      3925      3926
         3      3927      3928      3929
         3      3930      3931      3932
         3      3933      3934      3935
         3      3936      3937      3938
         3      3939      3940      3941
         3      3942      3943      3944
         3      3945      3946      3947
         3      3948      3949      3950
         3      3951      3952      3953
         3      3954      3955      3956
         3      3957      3958      3959
         3      3960      3961      3962
         3      3963      3964      3965
         3      3966      3967      3968
         3      3969      3970      3971
         3      3972      3973      3974
         3      3975      3976      3977
         3      3978      3979      3980
         3      3981      3982      3983
         3      3984      3985      3986
         3      3987      3988      3989
         3      3990      3991      3992
         3      3993      3994      3995
         3      3996      3997      3998
         3      3999      4000      4001
         3      4002      4003      4004
         3      4005      4006      4007
         3      4008      4009      4010
         3      4011      4012      4013
         3      4014      4015      4016
         3      4017      4018      4019
         3      4020      4021      4022
         3      4023      4024      4025
         3      4026      4027      4028
         3      4029      4030      4031
         3      4032      4033      4034
         3      4035      4036      4037
         3      4038      4039      4040
         3      4041      4042      4043
         3      4044      4045      4046
         3      4047      4048      4049
         3      4050      4051      4052
         3      4053      4054      4055
         3      4056      4057      4058
         3      4059      4060      4061
         3      4062      4063      4064
         3      4065      4066      4067
         3      4068      4069      4070
         3      4071      4072      4073
         3      4074      4075      4076
         3      4077      4078      4079
         3      4080      4081      4082
         3      4083      4084      4085
         3      4086      4087      4088
         3      4089      4090      4091
         3      4092      4093      4094
         3      4095      4096      4097
         3      4098      4099      4100
         3      4101      4102      4103
         3      4104      4105      4106
         3      4107      4108      4109
         3      4110      4111      4112
         3      4113      4114      4115
         3      4116      4117      4118
         3      4119      4120      4121
         3      4122      4123      4124
         3      4125      4126      4127
         3      4128      4129      4130
         3      4131      4132      4133
         3      4134      4135      4136
         3      4137      4138      4139
         3      4140      4141      4142
         3      4143      4144      4145
         3      4146      4147      4148
         3      4149      4150      4151
         3      4152      4153      4154
         3      4155      4156      4157
         3      4158      4159      4160
         3      4161      4162      4163
         3      4164      4165      4166
         3      4167      4168      4169
         3      4170      4171      4172
         3      4173      4174      4175
         3      4176      4177      4178
         3      4179      4180      4181
         3      4182      4183      4184
         3      4185      4186      4187
         3      4188      4189      4190
         3      4191      4192      4193
         3      4194      4195      4196
         3      4197      4198      4199
         3      4200      4201      4202
         3      4203      4204      4205
         3      4206      4207      4208
         3      4209      4210      4211
         3      4212      4213      4214
         3      4215      4216      4217
         3      4218      4219      4220
         3      4221      4222      4223
         3      4224      4225      4226
         3      4227      4228      4229
         3      4230      4231      4232
         3      4233      4234      4235
         3      4236      4237      4238
         3      4239      4240      4241
         3      4242      4243      4244
         3      4245      4246      4247
         3      4248      4249      4250
         3      4251      4252      4253
         3      4254      4255      4256
         3      4257      4258      4259
         3      4260      4261      4262
         3      4263      4264      4265
         3      4266      4267      4268
         3      4269      4270      4271
         3      4272      4273      4274
         3      4275      4276      4277
         3      4278      4279      4280
         3      4281      4282      4283
         3      4284      4285      4286
         3      4287      4288      4289
         3      4290      4291      4292
         3      4293      4294      4295
         3      4296      4297      4298
         3      4299      4300      4301
         3      4302      4303      4304
         3      4305      4306      4307
         3      4308      4309      4310
         3      4311      4312      4313
         3      4314      4315      4316
         3      4317      4318      4319
         3      4320      4321      4322
         3      4323      4324      4325
         3      4326      4327      4328
         3      4329      4330      4331
         3      4332      4333      4334
         3      4335      4336      4337
         3      4338      4339      4340
         3      4341      4342      4343
         3      4344      4345      4346
         3      4347      4348      4349
         3      4350      4351      4352
         3      4353      4354      4355
         3      4356      4357      4358
         3      4359      4360      4361
         3      4362      4363      4364
         3      4365      4366      4367
         3      4368      4369      4370
         3      4371      4372      4373
         3      4374      4375      4376
         3      4377      4378      4379
         3      4380      4381      4382
         3      4383      4384      4385
         3      4386      4387      4388
         3      4389      4390      4391
         3      4392      4393      4394
         3      4395      4396      4397
         3      4398      4399      4400
         3      4401      4402      4403
         3      4404      4405      4406
         3      4407      4408      4409
         3      4410      4411      4412
         3      4413      4414      4415
         3      4416      4417      4418
         3      4419      4420      4421
         3      4422      4423      4424
         3      4425      4426      4427
         3      4428      4429      4430
         3      4431      4432      4433
         3      4434      4435      4436
         3      4437      4438      4439
         3      4440      4441      4442
         3      4443      4444      4445
         3      4446      4447      4448
         3      4449      4450      4451
         3      4452      4453      4454
         3      4455      4456      4457
         3      4458      4459      4460
         3      4461      4462      4463
         3      4464      4465      4466
         3      4467      4468      4469
         3      4470      4471      4472
         3      4473      4474      4475
         3      4476      4477      4478
         3      4479      4480      4481
         3      4482      4483      4484
         3      4485      4486      4487
         3      4488      4489      4490
         3      4491      4492      4493
         3      4494      4495      4496
         3      4497      4498      4499
         3      4500      4501      4502
         3      4503      4504      4505
         3      4506      4507      4508
         3      4509      4510      4511
         3      4512      4513      4514
         3      4515      4516      4517
         3      4518      4519      4520
         3      4521      4522      4523
         3      4524      4525      4526
         3      4527      4528      4529
         3      4530      4531      4532
         3      4533      4534      4535
         3      4536      4537      4538
         3      4539      4540      4541
         3      4542      4543      4544
         3      4545      4546      4547
         3      4548      4549      4550
         3      4551      4552      4553
         3      4554      4555      4556
         3      4557      4558      4559
         3      4560      4561      4562
         3      4563      4564      4565
         3      4566      4567      4568
         3      4569      4570      4571
         3      4572      4573      4574
         3      4575      4576      4577
         3      4578      4579      4580
         3      4581      4582      4583
         3      4584      4585      4586
         3      4587      4588      4589
         3      4590      4591      4592
         3      4593      4594      4595
         3      4596      4597      4598
         3      4599      4600      4601
         3      4602      4603      4604
         3      4605      4606      4607
         3      4608      4609      4610
         3      4611      4612      4613
         3      4614      4615      4616
         3      4617      4618      4619
         3      4620      4621      4622
         3      4623      4624      4625
         3      4626      4627      4628
         3      4629      4630      4631
         3      4632      4633      4634
         3      4635      4636      4637
         3      4638      4639      4640
         4      4641      4643      4644      4642
         3      4645      4646      4647
         3      4648      4649      4650
         3      4651      4652      4653
         4      4654      4655      4657      4656
         3      4658      4659      4660
         3      4661      4662      4663
         4      4664      4665      4666      4667
         4      4668      4670      4669      4671
         3      4672      4673      4674
         3      4675      4676      4677
         4      4678      4679      4681      4680
         3      4682      4683      4684
         3      4685      4686      4687
         4      4688      4689      4690      4691
         4      4692      4694      4693      4695
         3      4696      4697      4698
         3      4699      4700      4701
         3      4702      4703      4704
         3      4705      4706      4707
         3      4708      4709      4710
         4      4711      4713      4714      4712
         3      4715      4716      4717
         3      4718      4719      4720
         3      4721      4722      4723
         3      4724      4725      4726
         3      4727      4728      4729
         3      4730      4731      4732
         3      4733      4734      4735
         4      4736      4737      4739      4738
         3      4740      4741      4742
         3      4743      4744      4745
         4      4746      4747      4748      4749
         3      4750      4751      4752
         4      4753      4754      4755      4756
         3      4757      4758      4759
         4      4760      4761      4763      4762
         3      4764      4765      4766
         3      4767      4768      4769
         4      4770      4771      4772      4773
         4      4774      4776      4775      4777
         3      4778      4779      4780
         3      4781      4782      4783
         3      4784      4785      4786
         4      4787      4788      4789      4790
         3      4791      4792      4793
         4      4794      4795      4796      4797
         4      4798      4800      4799      4801
         3      4802      4803      4804
         3      4805      4806      4807
         3      4808      4809      4810
         3      4811      4812      4813
         3      4814      4815      4816
         3      4817      4818      4819
         3      4820      4821      4822
         3      4823      4824      4825
         3      4826      4827      4828
         3      4829      4830      4831
         3      4832      4833      4834
         3      4835      4836      4837
         3      4838      4839      4840
         3      4841      4842      4843
         3      4844      4845      4846
         3      4847      4848      4849
         3      4850      4851      4852
         3      4853      4854      4855
         3      4856      4857      4858
         3      4859      4860      4861
         3      4862      4863      4864
         4      4865      4867      4868      4866
         3      4869      4870      4871
         3      4872      4873      4874
         3      4875      4876      4877
         3      4878      4879      4880
         4      4881      4882      4884      4883
         4      4885      4886      4888      4887
         3      4889      4890      4891
         4      4892      4893      4894      4895
         3      4896      4897      4898
         3      4899      4900      4901
         3      4902      4903      4904
         3      4905      4906      4907
         3      4908      4909      4910
         3      4911      4912      4913
         4      4914      4916      4917      4915
         3      4918      4919      4920
         3      4921      4922      4923
         3      4924      4925      4926
         3      4927      4928      4929
         3      4930      4931      4932
         4      4933      4935      4936      4934
         3      4937      4938      4939
         3      4940      4941      4942
         4      4943      4945      4946      4944
         3      4947      4948      4949
         3      4950      4951      4952
         3      4953      4954      4955
         3      4956      4957      4958
         3      4959      4960      4961
         3      4962      4963      4964
         3      4965      4966      4967
         4      4968      4969      4971      4970
         3      4972      4973      4974
         4      4975      4976      4977      4978
         4      4979      4980      4981      4982
         3      4983      4984      4985
         3      4986      4987      4988
         3      4989      4990      4991
         3      4992      4993      4994
         3      4995      4996      4997
         3      4998      4999      5000
         3      5001      5002      5003
         3      5004      5005      5006
         3      5007      5008      5009
         3      5010      5011      5012
         3      5013      5014      5015
         3      5016      5017      5018
         3      5019      5020      5021
         3      5022      5023      5024
         3      5025      5026      5027
         3      5028      5029      5030
         3      5031      5032      5033
         3      5034      5035      5036
         3      5037      5038      5039
         3      5040      5041      5042
         3      5043      5044      5045
         3      5046      5047      5048
         4      5049      5051      5052      5050
         3      5053      5054      5055
         3      5056      5057      5058
         3      5059      5060      5061
         3      5062      5063      5064
         3      5065      5066      5067
         4      5068      5069      5071      5070
         4      5072      5073      5075      5074
         3      5076      5077      5078
         4      5079      5080      5081      5082
         3      5083      5084      5085
         3      5086      5087      5088
         3      5089      5090      5091
         3      5092      5093      5094
         3      5095      5096      5097
         3      5098      5099      5100
         4      5101      5103      5104      5102
         3      5105      5106      5107
         3      5108      5109      5110
         3      5111      5112      5113
         4      5114      5116      5117      5115
         3      5118      5119      5120
         3      5121      5122      5123
         3      5124      5125      5126
         3      5127      5128      5129
         3      5130      5131      5132
         3      5133      5134      5135
         3      5136      5137      5138
         4      5139      5140      5142      5141
         3      5143      5144      5145
         4      5146      5147      5148      5149
         4      5150      5151      5152      5153
         3      5154      5155      5156
         3      5157      5158      5159
         3      5160      5161      5162
         3      5163      5164      5165
         3      5166      5167      5168
         3      5169      5170      5171
         3      5172      5173      5174
         3      5175      5176      5177
         3      5178      5179      5180
         3      5181      5182      5183
         3      5184      5185      5186
         3      5187      5188      5189
         3      5190      5191      5192
         3      5193      5194      5195
         3      5196      5197      5198
         3      5199      5200      5201
         3      5202      5203      5204
         3      5205      5206      5207
         3      5208      5209      5210
         4      5211      5212      5214      5213
         3      5215      5216      5217
         4      5218      5219      5220      5221
         3      5222      5223      5224
         3      5225      5226      5227
         4      5228      5229      5230      5231
         3      5232      5233      5234
         3      5235      5236      5237
         3      5238      5239      5240
         3      5241      5242      5243
         3      5244      5245      5246
         3      5247      5248      5249
         4      5250      5251      5253      5252
         4      5254      5255      5257      5256
         3      5258      5259      5260
         4      5261      5262      5263      5264
         3      5265      5266      5267
         3      5268      5269      5270
         3      5271      5272      5273
         3      5274      5275      5276
         3      5277      5278      5279
         3      5280      5281      5282
         4      5283      5285      5286      5284
         4      5287      5288      5290      5289
         3      5291      5292      5293
         3      5294      5295      5296
         4      5297      5299      5298      5300
         3      5301      5302      5303
         3      5304      5305      5306
         4      5307      5308      5309      5310
         3      5311      5312      5313
         3      5314      5315      5316
         3      5317      5318      5319
         3      5320      5321      5322
         3      5323      5324      5325
         4      5326      5327      5329      5328
         3      5330      5331      5332
         3      5333      5334      5335
         4      5336      5338      5337      5339
         4      5340      5341      5342      5343
         3      5344      5345      5346
         3      5347      5348      5349
         3      5350      5351      5352
         3      5353      5354      5355
         3      5356      5357      5358
         3      5359      5360      5361
         3      5362      5363      5364
         3      5365      5366      5367
         3      5368      5369      5370
         3      5371      5372      5373
         3      5374      5375      5376
         3      5377      5378      5379
         3      5380      5381      5382
         3      5383      5384      5385
         3      5386      5387      5388
         3      5389      5390      5391
         3      5392      5393      5394
         3      5395      5396      5397
         4      5398      5399      5401      5400
         3      5402      5403      5404
         3      5405      5406      5407
         4      5408      5409      5411      5410
         3      5412      5413      5414
         4      5415      5416      5417      5418
         3      5419      5420      5421
         3      5422      5423      5424
         3      5425      5426      5427
         3      5428      5429      5430
         4      5431      5433      5434      5432
         3      5435      5436      5437
         3      5438      5439      5440
         3      5441      5442      5443
         3      5444      5445      5446
         3      5447      5448      5449
         4      5450      5452      5453      5451
         3      5454      5455      5456
         3      5457      5458      5459
         3      5460      5461      5462
         3      5463      5464      5465
         3      5466      5467      5468
         3      5469      5470      5471
         3      5472      5473      5474
         3      5475      5476      5477
         3      5478      5479      5480
         4      5481      5483      5484      5482
         3      5485      5486      5487
         3      5488      5489      5490
         3      5491      5492      5493
         3      5494      5495      5496
         3      5497      5498      5499
         3      5500      5501      5502
         3      5503      5504      5505
         3      5506      5507      5508
         3      5509      5510      5511
         3      5512      5513      5514
         3      5515      5516      5517
         3      5518      5519      5520
         3      5521      5522      5523
         3      5524      5525      5526
         3      5527      5528      5529
         3      5530      5531      5532
         3      5533      5534      5535
         3      5536      5537      5538
         3      5539      5540      5541
         3      5542      5543      5544
         3      5545      5546      5547
         3      5548      5549      5550
         4      5551      5552      5554      5553
         3      5555      5556      5557
         4      5558      5559      5560      5561
         3      5562      5563      5564
         3      5565      5566      5567
         4      5568      5569      5570      5571
         3      5572      5573      5574
         3      5575      5576      5577
         3      5578      5579      5580
         3      5581      5582      5583
         3      5584      5585      5586
         3      5587      5588      5589
         3      5590      5591      5592
         3      5593      5594      5595
         3      5596      5597      5598
         3      5599      5600      5601
         3      5602      5603      5604
         4      5605      5606      5608      5607
         3      5609      5610      5611
         3      5612      5613      5614
         4      5615      5617      5616      5618
         4      5619      5620      5621      5622
         3      5623      5624      5625
         3      5626      5627      5628
         3      5629      5630      5631
         3      5632      5633      5634
         3      5635      5636      5637
         3      5638      5639      5640
         3      5641      5642      5643
         3      5644      5645      5646
         3      5647      5648      5649
         3      5650      5651      5652
         3      5653      5654      5655
         3      5656      5657      5658
         3      5659      5660      5661
         3      5662      5663      5664
         3      5665      5666      5667
         3      5668      5669      5670
         3      5671      5672      5673
         3      5674      5675      5676
         3      5677      5678      5679
         3      5680      5681      5682
         3      5683      5684      5685
         4      5686      5688      5689      5687
         3      5690      5691      5692
         3      5693      5694      5695
         3      5696      5697      5698
         3      5699      5700      5701
         4      5702      5703      5704      5705
         3      5706      5707      5708
         4      5709      5710      5711      5712
         3      5713      5714      5715
         3      5716      5717      5718
         4      5719      5721      5720      5722
         3      5723      5724      5725
         3      5726      5727      5728
         3      5729      5730      5731
         3      5732      5733      5734
         3      5735      5736      5737
         3      5738      5739      5740
         3      5741      5742      5743
         4      5744      5745      5746      5747
         3      5748      5749      5750
         3      5751      5752      5753
         4      5754      5755      5756      5757
         4      5758      5759      5760      5761
         3      5762      5763      5764
         3      5765      5766      5767
         3      5768      5769      5770
         3      5771      5772      5773
         3      5774      5775      5776
         3      5777      5778      5779
         3      5780      5781      5782
         3      5783      5784      5785
         3      5786      5787      5788
         3      5789      5790      5791
         3      5792      5793      5794
         3      5795      5796      5797
         3      5798      5799      5800
         3      5801      5802      5803
         3      5804      5805      5806
         3      5807      5808      5809
         3      5810      5811      5812
         3      5813      5814      5815
         3      5816      5817      5818
         3      5819      5820      5821
         3      5822      5823      5824
         3      5825      5826      5827
         3      5828      5829      5830
         4      5831      5832      5834      5833
         3      5835      5836      5837
         3      5838      5839      5840
         4      5841      5842      5843      5844
         3      5845      5846      5847
         4      5848      5849      5850      5851
         3      5852      5853      5854
         3      5855      5856      5857
         3      5858      5859      5860
         3      5861      5862      5863
         3      5864      5865      5866
         3      5867      5868      5869
         3      5870      5871      5872
         3      5873      5874      5875
         3      5876      5877      5878
         4      5879      5880      5882      5881
         4      5883      5884      5886      5885
         3      5887      5888      5889
         4      5890      5891      5892      5893
         3      5894      5895      5896
         3      5897      5898      5899
         3      5900      5901      5902
         3      5903      5904      5905
         4      5906      5907      5908      5909
         3      5910      5911      5912
         4      5913      5914      5915      5916
         4      5917      5919      5918      5920
         3      5921      5922      5923
         3      5924      5925      5926
         3      5927      5928      5929
         3      5930      5931      5932
         3      5933      5934      5935
         3      5936      5937      5938
         3      5939      5940      5941
         3      5942      5943      5944
         3      5945      5946      5947
         3      5948      5949      5950
         3      5951      5952      5953
         3      5954      5955      5956
         3      5957      5958      5959
         3      5960      5961      5962
         3      5963      5964      5965
         3      5966      5967      5968
         3      5969      5970      5971
         3      5972      5973      5974
         3      5975      5976      5977
         4      5978      5979      5980      5981
         3      5982      5983      5984
         4      5985      5987      5986      5988
         3      5989      5990      5991
         3      5992      5993      5994
         4      5995      5996      5997      5998
         4      5999      6001      6002      6000
         3      6003      6004      6005
         3      6006      6007      6008
         3      6009      6010      6011
         3      6012      6013      6014
         3      6015      6016      6017
         3      6018      6019      6020
         3      6021      6022      6023
         3      6024      6025      6026
         3      6027      6028      6029
         3      6030      6031      6032
         3      6033      6034      6035
         3      6036      6037      6038
         3      6039      6040      6041
         3      6042      6043      6044
         4      6045      6047      6048      6046
         3      6049      6050      6051
         3      6052      6053      6054
         3      6055      6056      6057
         3      6058      6059      6060
         4      6061      6063      6064      6062
         3      6065      6066      6067
         3      6068      6069      6070
         3      6071      6072      6073
         3      6074      6075      6076
         3      6077      6078      6079
         4      6080      6081      6083      6082
         3      6084      6085      6086
         3      6087      6088      6089
         4      6090      6091      6092      6093
         4      6094      6096      6095      6097
         3      6098      6099      6100
         3      6101      6102      6103
         3      6104      6105      6106
         3      6107      6108      6109
         3      6110      6111      6112
         4      6113      6115      6116      6114
         3      6117      6118      6119
         3      6120      6121      6122
         3      6123      6124      6125
         3      6126      6127      6128
         3      6129      6130      6131
         3      6132      6133      6134
         3      6135      6136      6137
         3      6138      6139      6140
         3      6141      6142      6143
         3      6144      6145      6146
         3      6147      6148      6149
         3      6150      6151      6152
         3      6153      6154      6155
         3      6156      6157      6158
         4      6159      6161      6162      6160
         3      6163      6164      6165
         3      6166      6167      6168
         4      6169      6171      6172      6170
         3      6173      6174      6175
         3      6176      6177      6178
         3      6179      6180      6181
         3      6182      6183      6184
         3      6185      6186      6187
         3      6188      6189      6190
         3      6191      6192      6193
         3      6194      6195      6196
         3      6197      6198      6199
         3      6200      6201      6202
         3      6203      6204      6205
         3      6206      6207      6208
         3      6209      6210      6211
         3      6212      6213      6214
         3      6215      6216      6217
         3      6218      6219      6220
         3      6221      6222      6223
         3      6224      6225      6226
         3      6227      6228      6229
         3      6230      6231      6232
         4      6233      6234      6236      6235
         4      6237      6238      6240      6239
         3      6241      6242      6243
         4      6244      6245      6246      6247
         3      6248      6249      6250
         3      6251      6252      6253
         3      6254      6255      6256
         3      6257      6258      6259
         3      6260      6261      6262
         3      6263      6264      6265
         4      6266      6268      6269      6267
         3      6270      6271      6272
         3      6273      6274      6275
         3      6276      6277      6278
         3      6279      6280      6281
         3      6282      6283      6284
         3      6285      6286      6287
         3      6288      6289      6290
         3      6291      6292      6293
         3      6294      6295      6296
         3      6297      6298      6299
         3      6300      6301      6302
         4      6303      6304      6306      6305
         3      6307      6308      6309
         3      6310      6311      6312
         4      6313      6315      6314      6316
         3      6317      6318      6319
         3      6320      6321      6322
         4      6323      6324      6325      6326
         3      6327      6328      6329
         3      6330      6331      6332
         3      6333      6334      6335
         3      6336      6337      6338
         3      6339      6340      6341
         3      6342      6343      6344
         3      6345      6346      6347
         3      6348      6349      6350
         3      6351      6352      6353
         3      6354      6355      6356
         3      6357      6358      6359
         3      6360      6361      6362
         3      6363      6364      6365
         3      6366      6367      6368
         3      6369      6370      6371
         3      6372      6373      6374
         3      6375      6376      6377
         3      6378      6379      6380
         4      6381      6382      6384      6383
         3      6385      6386      6387
         4      6388      6389      6390      6391
         4      6392      6393      6394      6395
         3      6396      6397      6398
         3      6399      6400      6401
         3      6402      6403      6404
         3      6405      6406      6407
         3      6408      6409      6410
         3      6411      6412      6413
         3      6414      6415      6416
         3      6417      6418      6419
         3      6420      6421      6422
         3      6423      6424      6425
         3      6426      6427      6428
         3      6429      6430      6431
         3      6432      6433      6434
         3      6435      6436      6437
         4      6438      6439      6440      6441
         3      6442      6443      6444
         4      6445      6446      6447      6448
         3      6449      6450      6451
         3      6452      6453      6454
         4      6455      6457      6456      6458
         3      6459      6460      6461
         3      6462      6463      6464
         3      6465      6466      6467
         3      6468      6469      6470
         3      6471      6472      6473
         3      6474      6475      6476
         4      6477      6479      6480      6478
         3      6481      6482      6483
         3      6484      6485      6486
         3      6487      6488      6489
         3      6490      6491      6492
         3      6493      6494      6495
         3      6496      6497      6498
         4      6499      6501      6502      6500
         3      6503      6504      6505
         3      6506      6507      6508
         3      6509      6510      6511
         3      6512      6513      6514
         3      6515      6516      6517
         3      6518      6519      6520
         3      6521      6522      6523
         3      6524      6525      6526
         3      6527      6528      6529
         3      6530      6531      6532
         3      6533      6534      6535
         3      6536      6537      6538
         4      6539      6540      6542      6541
         3      6543      6544      6545
         4      6546      6547      6548      6549
         4      6550      6551      6552      6553
         3      6554      6555      6556
         3      6557      6558      6559
         3      6560      6561      6562
         3      6563      6564      6565
         3      6566      6567      6568
         3      6569      6570      6571
         3      6572      6573      6574
         3      6575      6576      6577
         3      6578      6579      6580
         3      6581      6582      6583
         3      6584      6585      6586
         3      6587      6588      6589
         3      6590      6591      6592
         3      6593      6594      6595
         4      6596      6598      6599      6597
         3      6600      6601      6602
         3      6603      6604      6605
         3      6606      6607      6608
         3      6609      6610      6611
         3      6612      6613      6614
         4      6615      6616      6618      6617
         4      6619      6620      6621      6622
         3      6623      6624      6625
         3      6626      6627      6628
         4      6629      6631      6630      6632
         3      6633      6634      6635
         3      6636      6637      6638
         4      6639      6640      6642      6641
         4      6643      6644      6645      6646
         3      6647      6648      6649
         3      6650      6651      6652
         4      6653      6655      6654      6656
         3      6657      6658      6659
         3      6660      6661      6662
         4      6663      6664      6666      6665
         4      6667      6668      6669      6670
         3      6671      6672      6673
         3      6674      6675      6676
         4      6677      6679      6678      6680
         4      6681      6682      6683      6684
         3      6685      6686      6687
         3      6688      6689      6690
         3      6691      6692      6693
         4      6694      6696      6695      6697
         3      6698      6699      6700
         4      6701      6703      6702      6704
         3      6705      6706      6707
         4      6708      6710      6711      6709
         3      6712      6713      6714
         3      6715      6716      6717
         3      6718      6719      6720
         3      6721      6722      6723
         3      6724      6725      6726
         3      6727      6728      6729
         3      6730      6731      6732
         4      6733      6735      6736      6734
         3      6737      6738      6739
         3      6740      6741      6742
         3      6743      6744      6745
         3      6746      6747      6748
         4      6749      6750      6751      6752
         3      6753      6754      6755
         3      6756      6757      6758
         4      6759      6760      6761      6762
         4      6763      6764      6765      6766
         3      6767      6768      6769
         3      6770      6771      6772
         3      6773      6774      6775
         4      6776      6778      6779      6777
         3      6780      6781      6782
         3      6783      6784      6785
         3      6786      6787      6788
         3      6789      6790      6791
         4      6792      6794      6795      6793
         3      6796      6797      6798
         3      6799      6800      6801
         3      6802      6803      6804
         3      6805      6806      6807
         3      6808      6809      6810
         4      6811      6812      6814      6813
         4      6815      6816      6817      6818
         3      6819      6820      6821
         3      6822      6823      6824
         4      6825      6827      6826      6828
         3      6829      6830      6831
         3      6832      6833      6834
         4      6835      6836      6838      6837
         4      6839      6840      6841      6842
         3      6843      6844      6845
         3      6846      6847      6848
         4      6849      6851      6850      6852
         3      6853      6854      6855
         3      6856      6857      6858
         4      6859      6860      6862      6861
         4      6863      6864      6865      6866
         3      6867      6868      6869
         3      6870      6871      6872
         4      6873      6875      6874      6876
         4      6877      6878      6879      6880
         3      6881      6882      6883
         3      6884      6885      6886
         3      6887      6888      6889
         4      6890      6892      6891      6893
         3      6894      6895      6896
         4      6897      6899      6898      6900
         3      6901      6902      6903
         3      6904      6905      6906
         3      6907      6908      6909
         3      6910      6911      6912
         3      6913      6914      6915
         3      6916      6917      6918
         3      6919      6920      6921
         3      6922      6923      6924
         3      6925      6926      6927
         3      6928      6929      6930
         3      6931      6932      6933
         3      6934      6935      6936
         3      6937      6938      6939
         3      6940      6941      6942
         3      6943      6944      6945
         3      6946      6947      6948
         3      6949      6950      6951
         3      6952      6953      6954
         3      6955      6956      6957
         3      6958      6959      6960
         3      6961      6962      6963
         3      6964      6965      6966
         4      6967      6969      6970      6968
         3      6971      6972      6973
         3      6974      6975      6976
         3      6977      6978      6979
         3      6980      6981      6982
         3      6983      6984      6985
         4      6986      6987      6989      6988
         3      6990      6991      6992
         4      6993      6994      6995      6996
         4      6997      6998      6999      7000
         3      7001      7002      7003
         3      7004      7005      7006
         3      7007      7008      7009
         3      7010      7011      7012
         3      7013      7014      7015
         3      7016      7017      7018
         3      7019      7020      7021
         3      7022      7023      7024
         3      7025      7026      7027
         3      7028      7029      7030
         3      7031      7032      7033
         3      7034      7035      7036
         3      7037      7038      7039
         3      7040      7041      7042
         3      7043      7044      7045
         3      7046      7047      7048
         3      7049      7050      7051
         3      7052      7053      7054
         3      7055      7056      7057
         3      7058      7059      7060
         3      7061      7062      7063
         3      7064      7065      7066
         3      7067      7068      7069
         3      7070      7071      7072
         3      7073      7074      7075
         3      7076      7077      7078
         3      7079      7080      7081
         3      7082      7083      7084
         3      7085      7086      7087
         3      7088      7089      7090
         4      7091      7093      7094      7092
         3      7095      7096      7097
         3      7098      7099      7100
         3      7101      7102      7103
         3      7104      7105      7106
         3      7107      7108      7109
         4      7110      7111      7113      7112
         3      7114      7115      7116
         4      7117      7118      7119      7120
         4      7121      7122      7123      7124
         3      7125      7126      7127
         3      7128      7129      7130
         3      7131      7132      7133
         3      7134      7135      7136
         3      7137      7138      7139
         3      7140      7141      7142
         3      7143      7144      7145
         3      7146      7147      7148
         3      7149      7150      7151
         3      7152      7153      7154
         3      7155      7156      7157
         3      7158      7159      7160
         3      7161      7162      7163
         3      7164      7165      7166
         3      7167      7168      7169
         3      7170      7171      7172
         3      7173      7174      7175
         3      7176      7177      7178
         3      7179      7180      7181
         3      7182      7183      7184
         3      7185      7186      7187
         3      7188      7189      7190
         3      7191      7192      7193
         3      7194      7195      7196
         3      7197      7198      7199
         3      7200      7201      7202
         3      7203      7204      7205
         4      7206      7207      7209      7208
         3      7210      7211      7212
         4      7213      7214      7215      7216
         3      7217      7218      7219
         3      7220      7221      7222
         4      7223      7224      7225      7226
         3      7227      7228      7229
         3      7230      7231      7232
         3      7233      7234      7235
         3      7236      7237      7238
         3      7239      7240      7241
         4      7242      7243      7245      7244
         3      7246      7247      7248
         4      7249      7250      7251      7252
         4      7253      7254      7255      7256
         3      7257      7258      7259
         3      7260      7261      7262
         3      7263      7264      7265
         3      7266      7267      7268
         3      7269      7270      7271
         3      7272      7273      7274
         3      7275      7276      7277
         3      7278      7279      7280
         3      7281      7282      7283
         3      7284      7285      7286
         3      7287      7288      7289
         3      7290      7291      7292
         3      7293      7294      7295
         3      7296      7297      7298
         3      7299      7300      7301
         3      7302      7303      7304
         3      7305      7306      7307
         3      7308      7309      7310
         3      7311      7312      7313
         3      7314      7315      7316
         3      7317      7318      7319
         3      7320      7321      7322
         3      7323      7324      7325
         3      7326      7327      7328
         3      7329      7330      7331
         3      7332      7333      7334
         3      7335      7336      7337
         4      7338      7339      7341      7340
         3      7342      7343      7344
         3      7345      7346      7347
         4      7348      7349      7351      7350
         3      7352      7353      7354
         4      7355      7356      7357      7358
         3      7359      7360      7361
         3      7362      7363      7364
         3      7365      7366      7367
         3      7368      7369      7370
         4      7371      7373      7374      7372
         3      7375      7376      7377
         3      7378      7379      7380
         3      7381      7382      7383
         3      7384      7385      7386
         3      7387      7388      7389
         3      7390      7391      7392
         3      7393      7394      7395
         4      7396      7398      7399      7397
         3      7400      7401      7402
         3      7403      7404      7405
         3      7406      7407      7408
         3      7409      7410      7411
         3      7412      7413      7414
         3      7415      7416      7417
         3      7418      7419      7420
         3      7421      7422      7423
         3      7424      7425      7426
         3      7427      7428      7429
         3      7430      7431      7432
         3      7433      7434      7435
         3      7436      7437      7438
         3      7439      7440      7441
         3      7442      7443      7444
         3      7445      7446      7447
         3      7448      7449      7450
         3      7451      7452      7453
         3      7454      7455      7456
         3      7457      7458      7459
         3      7460      7461      7462
         3      7463      7464      7465
         3      7466      7467      7468
         3      7469      7470      7471
         3      7472      7473      7474
         3      7475      7476      7477
         3      7478      7479      7480
         4      7481      7482      7483      7484
         3      7485      7486      7487
         4      7488      7489      7490      7491
         3      7492      7493      7494
         3      7495      7496      7497
         4      7498      7500      7499      7501
         3      7502      7503      7504
         4      7505      7506      7507      7508
         3      7509      7510      7511
         3      7512      7513      7514
         3      7515      7516      7517
         4      7518      7520      7519      7521
         4      7522      7523      7524      7525
         3      7526      7527      7528
         3      7529      7530      7531
         3      7532      7533      7534
         3      7535      7536      7537
         3      7538      7539      7540
         3      7541      7542      7543
         3      7544      7545      7546
         3      7547      7548      7549
         3      7550      7551      7552
         3      7553      7554      7555
         3      7556      7557      7558
         3      7559      7560      7561
         3      7562      7563      7564
         3      7565      7566      7567
         3      7568      7569      7570
         3      7571      7572      7573
         3      7574      7575      7576
         3      7577      7578      7579
         3      7580      7581      7582
         3      7583      7584      7585
         3      7586      7587      7588
         3      7589      7590      7591
         3      7592      7593      7594
         3      7595      7596      7597
         3      7598      7599      7600
         3      7601      7602      7603
         3      7604      7605      7606
         3      7607      7608      7609
         3      7610      7611      7612
         4      7613      7615      7616      7614
         3      7617      7618      7619
         3      7620      7621      7622
         3      7623      7624      7625
         3      7626      7627      7628
         4      7629      7631      7632      7630
         3      7633      7634      7635
         3      7636      7637      7638
         3      7639      7640      7641
         3      7642      7643      7644
         3      7645      7646      7647
         3      7648      7649      7650
         3      7651      7652      7653
         3      7654      7655      7656
         3      7657      7658      7659
         3      7660      7661      7662
         3      7663      7664      7665
         3      7666      7667      7668
         3      7669      7670      7671
         3      7672      7673      7674
         3      7675      7676      7677
         3      7678      7679      7680
         3      7681      7682      7683
         3      7684      7685      7686
         3      7687      7688      7689
         3      7690      7691      7692
         3      7693      7694      7695
         3      7696      7697      7698
         3      7699      7700      7701
         3      7702      7703      7704
         3      7705      7706      7707
         3      7708      7709      7710
         3      7711      7712      7713
         3      7714      7715      7716
         3      7717      7718      7719
         3      7720      7721      7722
         3      7723      7724      7725
         3      7726      7727      7728
         3      7729      7730      7731
         3      7732      7733      7734
         3      7735      7736      7737
         3      7738      7739      7740
         3      7741      7742      7743
         3      7744      7745      7746
         3      7747      7748      7749
         3      7750      7751      7752
         3      7753      7754      7755
         3      7756      7757      7758
         3      7759      7760      7761
         3      7762      7763      7764
         3      7765      7766      7767
         3      7768      7769      7770
         3      7771      7772      7773
         3      7774      7775      7776
         3      7777      7778      7779
         3      7780      7781      7782
         3      7783      7784      7785
         3      7786      7787      7788
         3      7789      7790      7791
         3      7792      7793      7794
         3      7795      7796      7797
         3      7798      7799      7800
         3      7801      7802      7803
         3      7804      7805      7806
         3      7807      7808      7809
         3      7810      7811      7812
         3      7813      7814      7815
         3      7816      7817      7818
         3      7819      7820      7821
         3      7822      7823      7824
         3      7825      7826      7827
         3      7828      7829      7830
         3      7831      7832      7833
         3      7834      7835      7836
         3      7837      7838      7839
         3      7840      7841      7842
         3      7843      7844      7845
         3      7846      7847      7848
         3      7849      7850      7851
         3      7852      7853      7854
         3      7855      7856      7857
         3      7858      7859      7860
         3      7861      7862      7863
         3      7864      7865      7866
         3      7867      7868      7869
         3      7870      7871      7872
         3      7873      7874      7875
         3      7876      7877      7878
         3      7879      7880      7881
         3      7882      7883      7884
         3      7885      7886      7887
         3      7888      7889      7890
         3      7891      7892      7893
         3      7894      7895      7896
         3      7897      7898      7899
         3      7900      7901      7902
         3      7903      7904      7905
         3      7906      7907      7908
         3      7909      7910      7911
         3      7912      7913      7914
         3      7915      7916      7917
         3      7918      7919      7920
         3      7921      7922      7923
         3      7924      7925      7926
         3      7927      7928      7929
         3      7930      7931      7932
         3      7933      7934      7935
         3      7936      7937      7938
         3      7939      7940      7941
         3      7942      7943      7944
         3      7945      7946      7947
         3      7948      7949      7950
         3      7951      7952      7953
         3      7954      7955      7956
         3      7957      7958      7959
         3      7960      7961      7962
         3      7963      7964      7965
         3      7966      7967      7968
         3      7969      7970      7971
         3      7972      7973      7974
         3      7975      7976      7977
         3      7978      7979      7980
         3      7981      7982      7983
         3      7984      7985      7986
         3      7987      7988      7989
         3      7990      7991      7992
         3      7993      7994      7995
         3      7996      7997      7998
         3      7999      8000      8001
         3      8002      8003      8004
         3      8005      8006      8007
         3      8008      8009      8010
         3      8011      8012      8013
         3      8014      8015      8016
         3      8017      8018      8019
         3      8020      8021      8022
         3      8023      8024      8025
         3      8026      8027      8028
         3      8029      8030      8031
         3      8032      8033      8034
         3      8035      8036      8037
         3      8038      8039      8040
         3      8041      8042      8043

CELL_TYPES 2578
   5
   5
   5
   5
   5
   5
   5
   5
   5
   5
   5
   5
   5
   5
   5
   5
   5
   5
   5
   5
   5
   5
   5
   5
   5
   5
   5
   5
   5
   5
   5
   5
   5
   5
   5
   5
   5
   5
   5
   5
   5
   5
   5
   5
   5
   5
   5
   5
   5
   5
   5
   5
   5
   5
   5
   5
   5
   5
   5
   5
   5
   5
   5
   5
   5
   5
   5
   5
   5
   5
   5
   5
   5
   5
   5
   5
   5
   5
   5
   5
   5
   5
   5
   5
   5
   5
   5
   5
   5
   5
   5
   5
   5
   5
   5
   5
   5
   5
   5
   5
   5
   5
   5
   5
   5
   5
   5
   5
   5
   5
   5
   5
   5
   5
   5
   5
   5
   5
   5
   5
   5
   5
   5
   5
   5
   5
   5
   5
   5
   5
   5
   5
   5
   5
   5
   5
   5
   5
   5
   5
   5
   5
   5
   5
   5
   5
   5
   5
   5
   5
   5
   5
   5
   5
   5
   5
   5
   5
   5
   5
   5
   5
   5
   5
   5
   5
   5
   5
   5
   5
   5
   5
   5
   5
   5
   5
   5
   5
   5
   5
   5
   5
   5
   5
   5
   5
   5
   5
   5
   5
   5
   5
   5
   5
   5
   5
   5
   5
   5
   5
   5
   5
   5
   5
   5
   5
   5
   5
   5
   5
   5
   5
   5
   5
   5
   5
   5
   5
   5
   5
   5
   5
   5
   5
   9
   5
   5
   5
   5
   9
   5
   5
   5
   5
   9
   5
   5
   5
   5
   5
   5
   5
   5
   5
   5
   5
   9
   5
   5
   5
   5
   9
   5
   5
   5
   5
   5
   5
   5
   5
   5
   5
   5
   5
   5
   5
   5
   5
   5
   5
   9
   5
   5
   9
   5
   9
   5
   5
   9
   5
   5
   9
   9
   5
   5
   5
   5
   5
   5
   9
   5
   5
   5
   5
   5
   5
   9
   5
   9
   9
   5
   9
   5
   5
   5
   5
   5
   5
   9
   5
   5
   5
   5
   5
   5
   5
   5
   5
   5
   5
   5
   5
   5
   5
   5
   5
   5
   5
   5
   5
   9
   5
   9
   5
   5
   9
   5
   5
   5
   9
   5
   5
   9
   9
   5
   5
   5
   5
   5
   5
   9
   5
   5
   5
   9
   5
   5
   9
   9
   5
   5
   5
   5
   5
   9
   5
   5
   5
   5
   5
   5
   5
   5
   5
   5
   5
   5
   5
   5
   5
   5
   5
   5
   5
   5
   5
   9
   9
   5
   5
   9
   5
   5
   5
   5
   5
   9
   5
   5
   9
   9
   5
   5
   5
   5
   5
   5
   9
   5
   5
   9
   5
   5
   5
   5
   5
   5
   5
   9
   5
   5
   5
   5
   5
   5
   5
   5
   5
   5
   5
   5
   5
   5
   5
   5
   5
   5
   5
   5
   5
   5
   9
   5
   5
   5
   5
   5
   9
   5
   5
   5
   5
   5
   9
   5
   5
   9
   9
   5
   5
   9
   5
   5
   5
   5
   5
   5
   5
   5
   9
   5
   5
   5
   9
   5
   9
   5
   5
   5
   5
   5
   5
   5
   5
   5
   5
   5
   5
   5
   5
   5
   5
   5
   5
   5
   9
   9
   5
   5
   9
   5
   5
   5
   5
   5
   5
   5
   5
   5
   5
   5
   9
   5
   5
   5
   5
   5
   5
   5
   5
   5
   5
   5
   5
   5
   5
   5
   5
   5
   5
   5
   5
   5
   5
   5
   5
   9
   5
   5
   9
   5
   5
   9
   5
   5
   9
   5
   5
   5
   5
   5
   5
   5
   5
   5
   9
   5
   5
   5
   5
   5
   5
   5
   5
   5
   5
   5
   5
   5
   5
   5
   5
   5
   5
   5
   5
   5
   5
   5
   5
   5
   9
   5
   5
   9
   5
   5
   5
   5
   5
   5
   5
   5
   9
   5
   5
   5
   5
   5
   5
   5
   9
   5
   5
   5
   5
   5
   5
   5
   5
   5
   5
   5
   5
   5
   5
   5
   5
   5
   5
   5
   9
   5
   9
   9
   5
   5
   9
   5
   5
   5
   5
   5
   5
   5
   5
   5
   5
   5
   5
   5
   5
   9
   5
   5
   5
   5
   9
   5
   9
   9
   5
   5
   5
   9
   5
   5
   9
   9
   5
   5
   5
   5
   5
   9
   5
   5
   5
   5
   5
   5
   5
   5
   5
   5
   5
   5
   5
   5
   5
   9
   5
   9
   9
   5
   9
   5
   5
   5
   5
   5
   5
   5
   5
   5
   5
   5
   5
   5
   5
   5
   5
   5
   5
   9
   5
   5
   9
   9
   5
   5
   5
   5
   5
   5
   9
   5
   5
   5
   5
   5
   5
   5
   5
   5
   5
   5
   5
   5
   9
   5
   5
   5
   5
   5
   5
   5
   5
   5
   5
   5
   5
   5
   5
   5
   5
   5
   5
   5
   9
   5
   5
   9
   9
   5
   5
   5
   5
   5
   5
   5
   5
   5
   5
   5
   5
   5
   5
   9
   5
   9
   5
   5
   9
   5
   5
   5
   5
   5
   5
   5
   5
   5
   9
   5
   5
   5
   5
   5
   5
   5
   5
   5
   5
   5
   5
   9
   5
   5
   5
   5
   5
   5
   5
   5
   5
   5
   5
   5
   5
   5
   5
   5
   9
   5
   5
   9
   5
   5
   9
   5
   5
   9
   5
   5
   5
   9
   5
   5
   5
   5
   9
   5
   5
   5
   5
   9
   5
   9
   5
   9
   5
   5
   9
   5
   9
   5
   5
   9
   5
   9
   5
   5
   9
   5
   9
   5
   5
   9
   5
   5
   5
   5
   5
   9
   5
   9
   5
   5
   9
   5
   9
   5
   5
   9
   5
   9
   5
   5
   9
   5
   5
   9
   5
   5
   5
   9
   5
   5
   5
   5
   9
   5
   5
   5
   5
   9
   5
   9
   5
   5
   9
   5
   9
   5
   5
   5
   5
   5
   5
   5
   5
   5
   5
   5
   5
   5
   5
   5
   5
   5
   5
   5
   5
   9
   5
   9
   5
   5
   9
   5
   5
   5
   5
   9
   5
   5
   5
   5
   5
   5
   5
   5
   5
   5
   5
   5
   5
   5
   5
   5
   5
   5
   5
   5
   5
   5
   5
   5
   5
   5
   5
   5
   5
   9
   5
   9
   5
   5
   9
   5
   5
   5
   5
   9
   5
   5
   5
   5
   5
   5
   5
   5
   5
   5
   5
   5
   5
   5
   5
   5
   5
   5
   5
   5
   5
   5
   5
   5
   5
   5
   5
   5
   5
   9
   9
   5
   5
   9
   5
   5
   5
   5
   5
   9
   5
   5
   5
   5
   5
   5
   5
   5
   5
   5
   5
   5
   5
   5
   5
   5
   5
   5
   5
   5
   5
   5
   5
   5
   5
   5
   5
   5
   5
   5
   9
   5
   5
   5
   5
   5
   9
   5
   5
   5
   5
   5
   9
   9
   5
   9
   5
   5
   5
   5
   5
   5
   5
   5
   5
   5
   5
   5
   5
   5
   5
   5
   5
   5
   5
   5
   5
   5
   5
   5
   5
   5
   5
   5
   9
   5
   9
   5
   5
   9
   5
   5
   5
   9
   5
   5
   5
   5
   5
   5
   5
   5
   5
   5
   5
   5
   5
   5
   5
   5
   5
   5
   5
   5
   5
   5
   5
   5
   5
   5
   5
   5
   5
   5
   5
   9
   5
   5
   9
   5
   9
   5
   5
   9
   5
   5
   9
   5
   5
   5
   5
   5
   5
   5
   5
   5
   5
   5
   5
   5
   5
   5
   5
   5
   5
   5
   5
   5
   5
   5
   5
   5
   5
   5
   5
   5
   5
   5
   5
   5
   5
   5
   5
   5
   5
   5
   5
   5
   5
   5
   5
   5
   5
   5
   5
   5
   5
   5
   5
   5
   5
   5
   5
   5
   5
   5
   5
   5
   5
   5
   5
   5
   5
   5
   5
   5
   5
   5
   5
   5
   5
   5
   5
   5
   5
   5
   5
   5
   5
   5
   5
   5
   5
   5
   5
   5
   5
   5
   5
   5
   5
   5
   5
   5
   5
   5
   5
   5
   5
   5
   5
   5
   5
   5
   5
   5
   5
   5
   5
   5
   5
   5
   5
   5
   5
   5
   5
   5
   5
   5
   5
   5
   5
   5
   5
   5
   5
   5
   5
   5
   5
   5
   5
   5
   5
   5
   5
   5
   5
   5
   5
   5
   5
   5
   5
   5
   5
   5
   5
   5
   5
   5
   5
   5
   5
   5
   5
   5
   5
   5
   5
   5
   5
   5
   5
   5
   5
   5
   5
   5
   5
   5
   5
   5
   5
   5
   5
   5
   5
   5
   5
   5
   5
   5
   5
   5
   5
   5
   5
   5
   5
   5
   5
   5
   5
   5
   5
   5
   5
   5
   5
   5
   5
   5
   5
   5
   5
   5
   5
   5
   5
   5
   5
   5
   5
   5
   5
   5
   5
   5
   5
   5
   5
   5
   5
   5
   5
   5
   5
   5
   5
   5
   5
   5
   5
   5
   5
   5
   5
   5
   5
   5
   5
   5
   5
   5
   5
   5
   5
   5
   5
   5
   5
   5
   5
   5
   5
   5
   5
   5
   5
   5
   5
   5
   5
   5
   5
   5
   5
   5
   5
   5
   5
   5
   5
   5
   5
   5
   5
   5
   5
   5
   5
   5
   5
   5
   5
   5
   5
   5
   5
   5
   5
   5
   5
   5
   5
   5
   5
   5
   5
   5
   5
   5
   5
   5
   5
   5
   5
   5
   5
   5
   5
   5
   5
   5
   5
   5
   5
   5
   5
   5
   5
   5
   5
   5
   5
   5
   5
   5
   5
   5
   5
   5
   5
   5
   5
   5
   5
   5
   5
   5
   5
   5
   5
   5
   5
   5
   5
   5
   5
   5
   5
   5
   9
   5
   5
   5
   9
   5
   5
   9
   9
   5
   5
   9
   5
   5
   9
   9
   5
   5
   5
   5
   5
   9
   5
   5
   5
   5
   5
   5
   5
   9
   5
   5
   9
   5
   9
   5
   9
   5
   5
   9
   9
   5
   5
   5
   9
   5
   9
   9
   5
   5
   5
   5
   5
   5
   5
   5
   5
   5
   5
   5
   5
   5
   5
   5
   5
   5
   5
   5
   5
   9
   5
   5
   5
   5
   9
   9
   5
   9
   5
   5
   5
   5
   5
   5
   9
   5
   5
   5
   5
   5
   9
   5
   5
   9
   5
   5
   5
   5
   5
   5
   5
   9
   5
   9
   9
   5
   5
   5
   5
   5
   5
   5
   5
   5
   5
   5
   5
   5
   5
   5
   5
   5
   5
   5
   5
   5
   5
   9
   5
   5
   5
   5
   5
   9
   9
   5
   9
   5
   5
   5
   5
   5
   5
   9
   5
   5
   5
   9
   5
   5
   5
   5
   5
   5
   5
   9
   5
   9
   9
   5
   5
   5
   5
   5
   5
   5
   5
   5
   5
   5
   5
   5
   5
   5
   5
   5
   5
   5
   9
   5
   9
   5
   5
   9
   5
   5
   5
   5
   5
   5
   9
   9
   5
   9
   5
   5
   5
   5
   5
   5
   9
   9
   5
   5
   9
   5
   5
   9
   5
   5
   5
   5
   5
   9
   5
   5
   9
   9
   5
   5
   5
   5
   5
   5
   5
   5
   5
   5
   5
   5
   5
   5
   5
   5
   5
   5
   9
   5
   5
   9
   5
   9
   5
   5
   5
   5
   9
   5
   5
   5
   5
   5
   9
   5
   5
   5
   5
   5
   5
   5
   5
   5
   9
   5
   5
   5
   5
   5
   5
   5
   5
   5
   5
   5
   5
   5
   5
   5
   5
   5
   5
   5
   5
   5
   5
   9
   5
   9
   5
   5
   9
   5
   5
   5
   5
   5
   5
   5
   5
   5
   5
   5
   9
   5
   5
   9
   9
   5
   5
   5
   5
   5
   5
   5
   5
   5
   5
   5
   5
   5
   5
   5
   5
   5
   5
   5
   5
   5
   9
   5
   5
   5
   5
   9
   5
   9
   5
   5
   9
   5
   5
   5
   5
   5
   5
   5
   9
   5
   5
   9
   9
   5
   5
   5
   5
   5
   5
   5
   5
   5
   5
   5
   5
   5
   5
   5
   5
   5
   5
   5
   5
   5
   5
   5
   9
   5
   5
   9
   5
   9
   5
   5
   5
   5
   5
   5
   5
   5
   5
   9
   9
   5
   9
   5
   5
   5
   5
   9
   5
   9
   9
   5
   5
   5
   5
   5
   5
   5
   5
   5
   5
   5
   5
   5
   5
   5
   5
   5
   5
   5
   9
   5
   9
   5
   5
   9
   9
   5
   5
   5
   5
   5
   5
   5
   5
   5
   5
   5
   5
   5
   5
   9
   5
   5
   5
   5
   9
   5
   5
   5
   5
   5
   9
   5
   5
   9
   9
   5
   5
   5
   5
   5
   9
   5
   5
   5
   5
   5
   5
   5
   5
   5
   5
   5
   5
   5
   5
   9
   5
   5
   9
   5
   5
   5
   5
   5
   5
   5
   5
   5
   5
   5
   5
   5
   5
   5
   5
   5
   5
   5
   5
   9
   9
   5
   9
   5
   5
   5
   5
   5
   5
   9
   5
   5
   5
   5
   5
   5
   5
   5
   5
   5
   5
   9
   5
   5
   9
   5
   5
   9
   5
   5
   5
   5
   5
   5
   5
   5
   5
   5
   5
   5
   5
   5
   5
   5
   5
   5
   9
   5
   9
   9
   5
   5
   5
   5
   5
   5
   5
   5
   5
   5
   5
   5
   5
   5
   9
   5
   9
   5
   5
   9
   5
   5
   5
   5
   5
   5
   9
   5
   5
   5
   5
   5
   5
   9
   5
   5
   5
   5
   5
   5
   5
   5
   5
   5
   5
   5
   9
   5
   9
   9
   5
   5
   5
   5
   5
   5
   5
   5
   5
   5
   5
   5
   5
   5
   9
   5
   5
   5
   5
   5
   9
   9
   5
   5
   9
   5
   5
   9
   9
   5
   5
   9
   5
   5
   9
   9
   5
   5
   9
   9
   5
   5
   5
   9
   5
   9
   5
   9
   5
   5
   5
   5
   5
   5
   5
   9
   5
   5
   5
   5
   9
   5
   5
   9
   9
   5
   5
   5
   9
   5
   5
   5
   5
   9
   5
   5
   5
   5
   5
   9
   9
   5
   5
   9
   5
   5
   9
   9
   5
   5
   9
   5
   5
   9
   9
   5
   5
   9
   9
   5
   5
   5
   9
   5
   9
   5
   5
   5
   5
   5
   5
   5
   5
   5
   5
   5
   5
   5
   5
   5
   5
   5
   5
   5
   5
   5
   5
   9
   5
   5
   5
   5
   5
   9
   5
   9
   9
   5
   5
   5
   5
   5
   5
   5
   5
   5
   5
   5
   5
   5
   5
   5
   5
   5
   5
   5
   5
   5
   5
   5
   5
   5
   5
   5
   5
   5
   5
   9
   5
   5
   5
   5
   5
   9
   5
   9
   9
   5
   5
   5
   5
   5
   5
   5
   5
   5
   5
   5
   5
   5
   5
   5
   5
   5
   5
   5
   5
   5
   5
   5
   5
   5
   5
   5
   9
   5
   9
   5
   5
   9
   5
   5
   5
   5
   5
   9
   5
   9
   9
   5
   5
   5
   5
   5
   5
   5
   5
   5
   5
   5
   5
   5
   5
   5
   5
   5
   5
   5
   5
   5
   5
   5
   5
   5
   5
   5
   9
   5
   5
   9
   5
   9
   5
   5
   5
   5
   9
   5
   5
   5
   5
   5
   5
   5
   9
   5
   5
   5
   5
   5
   5
   5
   5
   5
   5
   5
   5
   5
   5
   5
   5
   5
   5
   5
   5
   5
   5
   5
   5
   5
   5
   5
   9
   5
   9
   5
   5
   9
   5
   9
   5
   5
   5
   9
   9
   5
   5
   5
   5
   5
   5
   5
   5
   5
   5
   5
   5
   5
   5
   5
   5
   5
   5
   5
   5
   5
   5
   5
   5
   5
   5
   5
   5
   5
   9
   5
   5
   5
   5
   9
   5
   5
   5
   5
   5
   5
   5
   5
   5
   5
   5
   5
   5
   5
   5
   5
   5
   5
   5
   5
   5
   5
   5
   5
   5
   5
   5
   5
   5
   5
   5
   5
   5
   5
   5
   5
   5
   5
   5
   5
   5
   5
   5
   5
   5
   5
   5
   5
   5
   5
   5
   5
   5
   5
   5
   5
   5
   5
   5
   5
   5
   5
   5
   5
   5
   5
   5
   5
   5
   5
   5
   5
   5
   5
   5
   5
   5
   5
   5
   5
   5
   5
   5
   5
   5
   5
   5
   5
   5
   5
   5
   5
   5
   5
   5
   5
   5
   5
   5
   5
   5
   5
   5
   5
   5
   5
   5
   5
   5
   5
   5
   5
   5
   5
   5
   5
   5
   5
   5
   5
   5
   5
   5
   5
   5
   5
   5
   5
   5
   5
   5
   5
   5
   5
   5
   5
   5

CELL_DATA 2578
SCALARS domain int
LOOKUP_TABLE default
   2
   2
   2
   2
   2
   2
   2
   2
   2
   2
   2
   2
   2
   2
   2
   2
   2
   2
   2
   2
   2
   2
   2
   2
   2
   2
   2
   2
   2
   2
   2
   2
   2
   2
   2
   2
   2
   2
   2
   2
   2
   2
   2
   2
   2
   2
   2
   2
   2
   2
   2
   2
   2
   2
   2
   2
   2
   2
   2
   2
   2
   2
   2
   2
   2
   2
   2
   2
   2
   2
   2
   2
   2
   2
   2
   2
   2
   2
   2
   2
   2
   2
   2
   2
   2
   2
   2
   2
   2
   2
   2
   2
   2
   2
   2
   2
   2
   2
   2
   2
   2
   2
   2
   2
   2
   2
   2
   2
   2
   2
   2
   2
   2
   2
   2
   2
   2
   2
   2
   2
   2
   2
   2
   2
   2
   2
   2
   2
   2
   2
   2
   2
   2
   2
   2
   2
   2
   2
   2
   2
   2
   2
   2
   2
   2
   2
   2
   2
   2
   2
   2
   2
   2
   2
   2
   2
   2
   2
   2
   2
   2
   2
   2
   2
   2
   2
   2
   2
   2
   2
   2
   2
   2
   2
   2
   2
   2
   2
   2
   2
   2
   2
   2
   2
   2
   2
   2
   2
   2
   2
   2
   2
   2
   2
   2
   2
   2
   2
   2
   2
   2
   2
   2
   2
   2
   2
   2
   2
   2
   2
   2
   2
   2
   2
   2
   2
   2
   2
   2
   2
   2
   2
   2
   1
   2
   2
   2
   2
   1
   2
   2
   2
   2
   1
   2
   2
   2
   2
   2
   2
   2
   2
   2
   2
   2
   1
   2
   2
   2
   2
   1
   2
   2
   2
   2
   2
   2
   2
   2
   2
   2
   2
   2
   2
   2
   2
   2
   2
   2
   2
   1
   2
   1
   2
   1
   2
   1
   1
   1
   2
   1
   2
   1
   2
   1
   2
   2
   2
   1
   2
   2
   2
   2
   2
   2
   1
   2
   1
   2
   1
   2
   1
   2
   1
   1
   1
   1
   1
   1
   2
   1
   1
   2
   2
   2
   2
   2
   2
   2
   2
   2
   2
   2
   2
   2
   2
   2
   2
   2
   1
   2
   1
   1
   2
   1
   2
   1
   1
   1
   1
   2
   1
   2
   1
   2
   1
   2
   2
   2
   1
   2
   2
   2
   2
   1
   2
   1
   2
   1
   2
   1
   1
   1
   1
   1
   2
   1
   1
   2
   2
   2
   2
   2
   2
   2
   2
   2
   2
   2
   2
   2
   2
   2
   2
   2
   1
   2
   1
   2
   1
   2
   2
   1
   1
   1
   1
   1
   2
   1
   2
   1
   2
   1
   2
   2
   2
   1
   2
   2
   1
   2
   2
   2
   1
   1
   1
   1
   1
   1
   2
   1
   1
   2
   2
   2
   2
   2
   2
   2
   2
   2
   2
   2
   2
   2
   2
   2
   2
   2
   2
   1
   2
   2
   2
   1
   1
   1
   1
   2
   1
   1
   1
   1
   1
   2
   1
   2
   1
   2
   1
   1
   2
   1
   1
   1
   1
   1
   1
   1
   1
   2
   2
   1
   2
   1
   2
   2
   2
   2
   2
   2
   2
   2
   2
   2
   2
   2
   2
   2
   2
   2
   2
   2
   2
   1
   2
   1
   2
   1
   2
   2
   1
   1
   1
   1
   1
   1
   1
   1
   1
   1
   1
   2
   1
   1
   2
   2
   2
   2
   2
   2
   2
   2
   2
   2
   2
   2
   2
   2
   2
   2
   2
   2
   2
   2
   1
   2
   2
   2
   1
   2
   1
   1
   2
   1
   2
   1
   1
   1
   1
   1
   1
   1
   1
   1
   2
   2
   2
   2
   2
   2
   2
   2
   2
   2
   2
   2
   2
   2
   2
   2
   2
   2
   2
   2
   2
   2
   2
   2
   2
   1
   2
   2
   1
   2
   1
   1
   1
   1
   1
   1
   1
   1
   1
   2
   1
   1
   2
   2
   2
   1
   2
   2
   2
   2
   2
   2
   2
   2
   2
   2
   2
   2
   2
   2
   2
   2
   2
   2
   2
   1
   2
   1
   2
   1
   2
   1
   1
   2
   1
   1
   1
   1
   1
   1
   1
   1
   1
   1
   1
   1
   1
   1
   2
   1
   1
   1
   2
   1
   2
   1
   2
   1
   1
   2
   2
   1
   2
   1
   2
   2
   2
   2
   1
   2
   2
   2
   2
   2
   2
   2
   2
   2
   2
   2
   2
   2
   2
   2
   1
   2
   1
   2
   1
   2
   1
   2
   1
   1
   1
   1
   1
   1
   1
   1
   1
   1
   1
   1
   1
   1
   1
   1
   1
   1
   2
   1
   2
   1
   2
   1
   2
   2
   2
   1
   2
   2
   2
   2
   2
   2
   2
   2
   2
   2
   2
   2
   2
   1
   2
   2
   2
   1
   1
   1
   1
   1
   1
   1
   1
   1
   1
   1
   1
   1
   1
   1
   1
   1
   1
   2
   1
   2
   1
   2
   1
   2
   2
   2
   2
   2
   2
   2
   2
   2
   2
   2
   1
   2
   1
   1
   2
   1
   2
   1
   1
   1
   1
   1
   1
   1
   1
   1
   1
   2
   1
   1
   1
   1
   1
   1
   1
   1
   1
   1
   1
   1
   2
   1
   1
   2
   2
   2
   2
   2
   2
   2
   2
   2
   2
   2
   2
   1
   2
   2
   2
   1
   2
   1
   1
   2
   1
   2
   1
   1
   1
   1
   2
   1
   1
   1
   1
   2
   1
   1
   1
   1
   2
   1
   2
   1
   2
   1
   2
   2
   1
   2
   1
   2
   1
   2
   2
   1
   2
   1
   1
   2
   1
   2
   1
   1
   1
   1
   1
   2
   1
   2
   2
   2
   1
   2
   1
   2
   1
   2
   2
   1
   2
   1
   1
   2
   1
   2
   1
   1
   1
   1
   2
   1
   1
   1
   1
   2
   1
   1
   1
   1
   2
   1
   2
   1
   2
   1
   2
   2
   2
   2
   2
   2
   2
   2
   2
   2
   2
   2
   2
   2
   2
   2
   2
   2
   2
   2
   1
   2
   1
   1
   2
   1
   2
   1
   1
   1
   1
   1
   2
   1
   1
   2
   2
   2
   2
   2
   2
   2
   2
   2
   2
   2
   2
   2
   2
   2
   2
   2
   2
   2
   2
   2
   2
   2
   2
   2
   1
   2
   1
   1
   2
   1
   2
   1
   1
   1
   1
   1
   2
   1
   1
   2
   2
   2
   2
   2
   2
   2
   2
   2
   2
   2
   2
   2
   2
   2
   2
   2
   2
   2
   2
   2
   2
   2
   2
   2
   1
   2
   1
   2
   1
   2
   2
   1
   1
   1
   1
   1
   2
   1
   1
   2
   2
   2
   2
   2
   2
   2
   2
   2
   2
   2
   2
   2
   2
   2
   2
   2
   2
   2
   2
   2
   2
   2
   2
   2
   2
   1
   2
   2
   2
   1
   1
   1
   1
   2
   1
   1
   1
   1
   2
   1
   2
   1
   2
   2
   2
   2
   2
   2
   2
   2
   2
   2
   2
   2
   2
   2
   2
   2
   2
   2
   2
   2
   2
   2
   2
   2
   2
   2
   2
   1
   2
   1
   1
   2
   1
   2
   1
   1
   1
   2
   2
   2
   2
   2
   2
   2
   2
   2
   2
   2
   2
   2
   2
   2
   2
   2
   2
   2
   2
   2
   2
   2
   2
   2
   2
   2
   2
   2
   2
   2
   1
   2
   2
   2
   1
   2
   1
   2
   1
   2
   2
   1
   2
   2
   2
   2
   2
   2
   2
   2
   2
   2
   2
   2
   2
   2
   2
   2
   2
   2
   2
   2
   2
   2
   2
   2
   2
   2
   2
   2
   2
   2
   2
   2
   2
   2
   2
   2
   2
   2
   2
   2
   2
   2
   2
   2
   2
   2
   2
   2
   2
   2
   2
   2
   2
   2
   2
   2
   2
   2
   2
   2
   2
   2
   2
   2
   2
   2
   2
   2
   2
   2
   2
   2
   2
   2
   2
   2
   2
   2
   2
   2
   2
   2
   2
   2
   2
   2
   2
   2
   2
   2
   2
   2
   2
   2
   2
   2
   2
   2
   2
   2
   2
   2
   2
   2
   2
   2
   2
   2
   2
   2
   2
   2
   2
   2
   2
   2
   2
   2
   2
   2
   2
   2
   2
   2
   2
   2
   2
   2
   2
   2
   2
   2
   2
   2
   2
   2
   2
   2
   2
   2
   2
   2
   2
   2
   2
   2
   2
   2
   2
   2
   2
   2
   2
   2
   2
   2
   2
   2
   2
   2
   2
   2
   2
   2
   2
   2
   2
   2
   2
   2
   2
   2
   2
   2
   2
   2
   2
   2
   2
   2
   2
   2
   2
   2
   2
   2
   2
   2
   2
   2
   2
   2
   2
   2
   2
   2
   2
   2
   2
   2
   2
   2
   2
   2
   2
   2
   2
   2
   2
   2
   2
   2
   2
   2
   2
   2
   2
   2
   2
   2
   2
   2
   2
   2
   2
   2
   2
   2
   2
   2
   2
   2
   2
   2
   2
   2
   2
   2
   2
   2
   2
   2
   2
   2
   2
   2
   2
   2
   2
   2
   2
   2
   2
   2
   2
   2
   2
   2
   2
   2
   2
   2
   2
   2
   2
   2
   2
   2
   2
   2
   2
   2
   2
   2
   2
   2
   2
   2
   2
   2
   2
   2
   2
   2
   2
   2
   2
   2
   2
   2
   2
   2
   2
   2
   2
   2
   2
   2
   2
   2
   2
   2
   2
   2
   2
   2
   2
   2
   2
   2
   2
   2
   2
   2
   2
   2
   2
   2
   2
   2
   2
   2
   2
   2
   2
   2
   2
   2
   2
   2
   2
   2
   2
   2
   2
   2
   2
   2
   2
   2
   2
   2
   2
   2
   2
   2
   2
   2
   2
   2
   2
   2
   2
   2
   2
   2
   2
   1
   2
   2
   2
   2
   1
   2
   1
   2
   1
   2
   2
   1
   2
   1
   2
   1
   2
   2
   2
   2
   1
   2
   2
   2
   2
   2
   2
   2
   2
   1
   2
   1
   2
   1
   2
   2
   1
   2
   1
   2
   1
   2
   2
   1
   2
   1
   2
   1
   2
   2
   2
   2
   2
   2
   2
   2
   2
   2
   2
   2
   2
   2
   2
   2
   2
   2
   1
   1
   1
   1
   2
   1
   1
   1
   2
   1
   2
   1
   2
   1
   2
   2
   2
   1
   2
   2
   2
   2
   2
   1
   2
   2
   2
   1
   2
   1
   1
   1
   1
   1
   1
   2
   1
   2
   1
   2
   1
   2
   2
   2
   2
   2
   2
   2
   2
   2
   2
   2
   2
   2
   2
   2
   2
   2
   1
   1
   1
   1
   2
   1
   1
   1
   1
   2
   1
   2
   1
   2
   1
   2
   2
   2
   1
   2
   2
   2
   1
   2
   2
   2
   1
   1
   1
   1
   1
   2
   1
   2
   1
   2
   1
   2
   2
   2
   2
   2
   2
   2
   2
   2
   2
   2
   2
   2
   2
   2
   2
   2
   1
   2
   1
   2
   1
   2
   2
   1
   1
   1
   1
   1
   2
   1
   2
   1
   2
   1
   2
   2
   2
   1
   2
   1
   2
   1
   1
   2
   1
   2
   1
   1
   1
   1
   1
   2
   2
   1
   2
   1
   2
   2
   2
   2
   2
   2
   2
   2
   2
   2
   2
   2
   2
   2
   2
   2
   2
   2
   1
   2
   1
   2
   1
   2
   2
   1
   1
   1
   1
   2
   1
   1
   1
   1
   1
   2
   1
   1
   1
   1
   1
   1
   1
   1
   1
   2
   1
   1
   2
   2
   2
   2
   2
   2
   2
   2
   2
   2
   2
   2
   2
   2
   2
   2
   2
   2
   2
   1
   2
   1
   2
   1
   2
   2
   1
   1
   1
   1
   1
   1
   1
   1
   1
   1
   2
   2
   1
   2
   1
   2
   2
   2
   2
   2
   2
   2
   2
   2
   2
   2
   2
   2
   2
   2
   2
   2
   2
   2
   2
   1
   2
   2
   2
   2
   1
   1
   2
   1
   2
   1
   2
   1
   1
   1
   1
   1
   1
   1
   1
   2
   1
   2
   1
   2
   1
   2
   2
   2
   2
   2
   2
   2
   2
   2
   2
   2
   2
   2
   2
   2
   2
   2
   2
   2
   2
   2
   1
   2
   1
   2
   1
   2
   1
   1
   1
   1
   1
   1
   1
   1
   1
   2
   1
   2
   1
   2
   1
   2
   1
   2
   1
   2
   1
   2
   2
   2
   2
   2
   2
   2
   2
   2
   2
   2
   2
   2
   2
   2
   2
   2
   2
   1
   2
   1
   1
   2
   1
   2
   1
   2
   1
   1
   1
   1
   1
   1
   1
   1
   1
   1
   1
   1
   1
   1
   2
   1
   1
   1
   1
   2
   1
   1
   1
   2
   1
   2
   1
   2
   1
   2
   2
   2
   2
   1
   2
   2
   2
   2
   2
   2
   2
   2
   2
   2
   2
   2
   2
   2
   1
   2
   2
   2
   1
   2
   1
   1
   1
   1
   1
   1
   1
   1
   1
   1
   1
   1
   1
   1
   1
   1
   1
   1
   1
   2
   1
   2
   1
   2
   1
   2
   2
   2
   1
   2
   2
   2
   2
   2
   2
   2
   2
   2
   2
   2
   2
   1
   2
   1
   1
   2
   1
   2
   1
   1
   1
   1
   1
   1
   1
   1
   1
   1
   1
   1
   1
   1
   1
   1
   1
   1
   2
   1
   2
   1
   2
   1
   2
   2
   2
   2
   2
   2
   2
   2
   2
   2
   2
   1
   1
   2
   1
   2
   1
   2
   1
   1
   1
   1
   1
   1
   1
   2
   1
   1
   1
   1
   1
   1
   2
   1
   1
   1
   1
   1
   1
   1
   1
   1
   1
   1
   2
   1
   2
   1
   2
   1
   2
   2
   2
   2
   2
   2
   2
   2
   2
   2
   2
   1
   2
   2
   2
   2
   1
   1
   2
   1
   2
   1
   2
   1
   1
   2
   1
   2
   1
   2
   1
   1
   2
   1
   2
   1
   2
   1
   2
   2
   1
   2
   1
   2
   1
   2
   2
   2
   2
   2
   1
   1
   1
   1
   2
   1
   1
   1
   1
   2
   1
   2
   1
   2
   1
   1
   2
   2
   2
   2
   1
   2
   2
   2
   2
   1
   1
   2
   1
   2
   1
   2
   1
   1
   2
   1
   2
   1
   2
   1
   1
   2
   1
   2
   1
   2
   1
   2
   2
   1
   2
   1
   2
   2
   2
   2
   2
   2
   2
   2
   2
   2
   2
   2
   2
   2
   2
   2
   2
   2
   2
   2
   1
   1
   1
   1
   2
   1
   1
   1
   1
   2
   1
   2
   1
   2
   1
   2
   2
   2
   2
   2
   2
   2
   2
   2
   2
   2
   2
   2
   2
   2
   2
   2
   2
   2
   2
   2
   2
   2
   2
   2
   1
   1
   1
   1
   2
   1
   1
   1
   1
   2
   1
   2
   1
   2
   1
   2
   2
   2
   2
   2
   2
   2
   2
   2
   2
   2
   2
   2
   2
   2
   2
   2
   2
   2
   2
   2
   2
   2
   2
   2
   1
   2
   1
   2
   1
   2
   2
   1
   1
   1
   1
   2
   1
   2
   1
   2
   1
   2
   2
   2
   2
   2
   2
   2
   2
   2
   2
   2
   2
   2
   2
   2
   2
   2
   2
   2
   2
   2
   2
   2
   2
   2
   1
   2
   1
   2
   1
   2
   2
   1
   1
   1
   1
   2
   1
   1
   2
   2
   2
   1
   2
   2
   2
   2
   2
   2
   2
   2
   2
   2
   2
   2
   2
   2
   2
   2
   2
   2
   2
   2
   2
   2
   2
   2
   2
   2
   2
   1
   1
   2
   1
   2
   1
   2
   1
   1
   2
   2
   1
   2
   1
   2
   2
   2
   2
   2
   2
   2
   2
   2
   2
   2
   2
   2
   2
   2
   2
   2
   2
   2
   2
   2
   2
   2
   2
   2
   2
   2
   2
   1
   2
   2
   2
   2
   1
   2
   2
   2
   2
   2
   2
   2
   2
   2
   2
   2
   2
   2
   2
   2
   2
   2
   2
   2
   2
   2
   2
   2
   2
   2
   2
   2
   2
   2
   2
   2
   2
   2
   2
   2
   2
   2
   2
   2
   2
   2
   2
   2
   2
   2
   2
   2
   2
   2
   2
   2
   2
   2
   2
   2
   2
   2
   2
   2
   2
   2
   2
   2
   2
   2
   2
   2
   2
   2
   2
   2
   2
   2
   2
   2
   2
   2
   2
   2
   2
   2
   2
   2
   2
   2
   2
   2
   2
   2
   2
   2
   2
   2
   2
   2
   2
   2
   2
   2
   2
   2
   2
   2
   2
   2
   2
   2
   2
   2
   2
   2
   2
   2
   2
   2
   2
   2
   2
   2
   2
   2
   2
   2
   2
   2
   2
   2
   2
   2
   2
   2
   2
   2
   2
   2
   2
   2
   2

SCALARS E float
LOOKUP_TABLE default
   1.000e+01
   1.000e+01
   1.000e+01
   1.000e+01
   1.000e+01
   1.000e+01
   1.000e+01
   1.000e+01
   1.000e+01
   1.000e+01
   1.000e+01
   1.000e+01
   1.000e+01
   1.000e+01
   1.000e+01
   1.000e+01
   1.000e+01
   1.000e+01
   1.000e+01
   1.000e+01
   1.000e+01
   1.000e+01
   1.000e+01
   1.000e+01
   1.000e+01
   1.000e+01
   1.000e+01
   1.000e+01
   1.000e+01
   1.000e+01
   1.000e+01
   1.000e+01
   1.000e+01
   1.000e+01
   1.000e+01
   1.000e+01
   1.000e+01
   1.000e+01
   1.000e+01
   1.000e+01
   1.000e+01
   1.000e+01
   1.000e+01
   1.000e+01
   1.000e+01
   1.000e+01
   1.000e+01
   1.000e+01
   1.000e+01
   1.000e+01
   1.000e+01
   1.000e+01
   1.000e+01
   1.000e+01
   1.000e+01
   1.000e+01
   1.000e+01
   1.000e+01
   1.000e+01
   1.000e+01
   1.000e+01
   1.000e+01
   1.000e+01
   1.000e+01
   1.000e+01
   1.000e+01
   1.000e+01
   1.000e+01
   1.000e+01
   1.000e+01
   1.000e+01
   1.000e+01
   1.000e+01
   1.000e+01
   1.000e+01
   1.000e+01
   1.000e+01
   1.000e+01
   1.000e+01
   1.000e+01
   1.000e+01
   1.000e+01
   1.000e+01
   1.000e+01
   1.000e+01
   1.000e+01
   1.000e+01
   1.000e+01
   1.000e+01
   1.000e+01
   1.000e+01
   1.000e+01
   1.000e+01
   1.000e+01
   1.000e+01
   1.000e+01
   1.000e+01
   1.000e+01
   1.000e+01
   1.000e+01
   1.000e+01
   1.000e+01
   1.000e+01
   1.000e+01
   1.000e+01
   1.000e+01
   1.000e+01
   1.000e+01
   1.000e+01
   1.000e+01
   1.000e+01
   1.000e+01
   1.000e+01
   1.000e+01
   1.000e+01
   1.000e+01
   1.000e+01
   1.000e+01
   1.000e+01
   1.000e+01
   1.000e+01
   1.000e+01
   1.000e+01
   1.000e+01
   1.000e+01
   1.000e+01
   1.000e+01
   1.000e+01
   1.000e+01
   1.000e+01
   1.000e+01
   1.000e+01
   1.000e+01
   1.000e+01
   1.000e+01
   1.000e+01
   1.000e+01
   1.000e+01
   1.000e+01
   1.000e+01
   1.000e+01
   1.000e+01
   1.000e+01
   1.000e+01
   1.000e+01
   1.000e+01
   1.000e+01
   1.000e+01
   1.000e+01
   1.000e+01
   1.000e+01
   1.000e+01
   1.000e+01
   1.000e+01
   1.000e+01
   1.000e+01
   1.000e+01
   1.000e+01
   1.000e+01
   1.000e+01
   1.000e+01
   1.000e+01
   1.000e+01
   1.000e+01
   1.000e+01
   1.000e+01
   1.000e+01
   1.000e+01
   1.000e+01
   1.000e+01
   1.000e+01
   1.000e+01
   1.000e+01
   1.000e+01
   1.000e+01
   1.000e+01
   1.000e+01
   1.000e+01
   1.000e+01
   1.000e+01
   1.000e+01
   1.000e+01
   1.000e+01
   1.000e+01
   1.000e+01
   1.000e+01
   1.000e+01
   1.000e+01
   1.000e+01
   1.000e+01
   1.000e+01
   1.000e+01
   1.000e+01
   1.000e+01
   1.000e+01
   1.000e+01
   1.000e+01
   1.000e+01
   1.000e+01
   1.000e+01
   1.000e+01
   1.000e+01
   1.000e+01
   1.000e+01
   1.000e+01
   1.000e+01
   1.000e+01
   1.000e+01
   1.000e+01
   1.000e+01
   1.000e+01
   1.000e+01
   1.000e+01
   1.000e+01
   1.000e+01
   1.000e+01
   1.000e+01
   1.000e+01
   1.000e+01
   1.000e+01
   1.000e+01
   1.000e+01
   1.000e+01
   1.000e+00
   1.000e+01
   1.000e+01
   1.000e+01
   1.000e+01
   1.000e+00
   1.000e+01
   1.000e+01
   1.000e+01
   1.000e+01
   1.000e+00
   1.000e+01
   1.000e+01
   1.000e+01
   1.000e+01
   1.000e+01
   1.000e+01
   1.000e+01
   1.000e+01
   1.000e+01
   1.000e+01
   1.000e+01
   1.000e+00
   1.000e+01
   1.000e+01
   1.000e+01
   1.000e+01
   1.000e+00
   1.000e+01
   1.000e+01
   1.000e+01
   1.000e+01
   1.000e+01
   1.000e+01
   1.000e+01
   1.000e+01
   1.000e+01
   1.000e+01
   1.000e+01
   1.000e+01
   1.000e+01
   1.000e+01
   1.000e+01
   1.000e+01
   1.000e+01
   1.000e+01
   1.000e+01
   1.000e+00
   1.000e+01
   1.000e+00
   1.000e+01
   1.000e+00
   1.000e+01
   1.000e+00
   1.000e+00
   1.000e+00
   1.000e+01
   1.000e+00
   1.000e+01
   1.000e+00
   1.000e+01
   1.000e+00
   1.000e+01
   1.000e+01
   1.000e+01
   1.000e+00
   1.000e+01
   1.000e+01
   1.000e+01
   1.000e+01
   1.000e+01
   1.000e+01
   1.000e+00
   1.000e+01
   1.000e+00
   1.000e+01
   1.000e+00
   1.000e+01
   1.000e+00
   1.000e+01
   1.000e+00
   1.000e+00
   1.000e+00
   1.000e+00
   1.000e+00
   1.000e+00
   1.000e+01
   1.000e+00
   1.000e+00
   1.000e+01
   1.000e+01
   1.000e+01
   1.000e+01
   1.000e+01
   1.000e+01
   1.000e+01
   1.000e+01
   1.000e+01
   1.000e+01
   1.000e+01
   1.000e+01
   1.000e+01
   1.000e+01
   1.000e+01
   1.000e+01
   1.000e+01
   1.000e+00
   1.000e+01
   1.000e+00
   1.000e+00
   1.000e+01
   1.000e+00
   1.000e+01
   1.000e+00
   1.000e+00
   1.000e+00
   1.000e+00
   1.000e+01
   1.000e+00
   1.000e+01
   1.000e+00
   1.000e+01
   1.000e+00
   1.000e+01
   1.000e+01
   1.000e+01
   1.000e+00
   1.000e+01
   1.000e+01
   1.000e+01
   1.000e+01
   1.000e+00
   1.000e+01
   1.000e+00
   1.000e+01
   1.000e+00
   1.000e+01
   1.000e+00
   1.000e+00
   1.000e+00
   1.000e+00
   1.000e+00
   1.000e+01
   1.000e+00
   1.000e+00
   1.000e+01
   1.000e+01
   1.000e+01
   1.000e+01
   1.000e+01
   1.000e+01
   1.000e+01
   1.000e+01
   1.000e+01
   1.000e+01
   1.000e+01
   1.000e+01
   1.000e+01
   1.000e+01
   1.000e+01
   1.000e+01
   1.000e+01
   1.000e+00
   1.000e+01
   1.000e+00
   1.000e+01
   1.000e+00
   1.000e+01
   1.000e+01
   1.000e+00
   1.000e+00
   1.000e+00
   1.000e+00
   1.000e+00
   1.000e+01
   1.000e+00
   1.000e+01
   1.000e+00
   1.000e+01
   1.000e+00
   1.000e+01
   1.000e+01
   1.000e+01
   1.000e+00
   1.000e+01
   1.000e+01
   1.000e+00
   1.000e+01
   1.000e+01
   1.000e+01
   1.000e+00
   1.000e+00
   1.000e+00
   1.000e+00
   1.000e+00
   1.000e+00
   1.000e+01
   1.000e+00
   1.000e+00
   1.000e+01
   1.000e+01
   1.000e+01
   1.000e+01
   1.000e+01
   1.000e+01
   1.000e+01
   1.000e+01
   1.000e+01
   1.000e+01
   1.000e+01
   1.000e+01
   1.000e+01
   1.000e+01
   1.000e+01
   1.000e+01
   1.000e+01
   1.000e+01
   1.000e+00
   1.000e+01
   1.000e+01
   1.000e+01
   1.000e+00
   1.000e+00
   1.000e+00
   1.000e+00
   1.000e+01
   1.000e+00
   1.000e+00
   1.000e+00
   1.000e+00
   1.000e+00
   1.000e+01
   1.000e+00
   1.000e+01
   1.000e+00
   1.000e+01
   1.000e+00
   1.000e+00
   1.000e+01
   1.000e+00
   1.000e+00
   1.000e+00
   1.000e+00
   1.000e+00
   1.000e+00
   1.000e+00
   1.000e+00
   1.000e+01
   1.000e+01
   1.000e+00
   1.000e+01
   1.000e+00
   1.000e+01
   1.000e+01
   1.000e+01
   1.000e+01
   1.000e+01
   1.000e+01
   1.000e+01
   1.000e+01
   1.000e+01
   1.000e+01
   1.000e+01
   1.000e+01
   1.000e+01
   1.000e+01
   1.000e+01
   1.000e+01
   1.000e+01
   1.000e+01
   1.000e+01
   1.000e+00
   1.000e+01
   1.000e+00
   1.000e+01
   1.000e+00
   1.000e+01
   1.000e+01
   1.000e+00
   1.000e+00
   1.000e+00
   1.000e+00
   1.000e+00
   1.000e+00
   1.000e+00
   1.000e+00
   1.000e+00
   1.000e+00
   1.000e+00
   1.000e+01
   1.000e+00
   1.000e+00
   1.000e+01
   1.000e+01
   1.000e+01
   1.000e+01
   1.000e+01
   1.000e+01
   1.000e+01
   1.000e+01
   1.000e+01
   1.000e+01
   1.000e+01
   1.000e+01
   1.000e+01
   1.000e+01
   1.000e+01
   1.000e+01
   1.000e+01
   1.000e+01
   1.000e+01
   1.000e+01
   1.000e+00
   1.000e+01
   1.000e+01
   1.000e+01
   1.000e+00
   1.000e+01
   1.000e+00
   1.000e+00
   1.000e+01
   1.000e+00
   1.000e+01
   1.000e+00
   1.000e+00
   1.000e+00
   1.000e+00
   1.000e+00
   1.000e+00
   1.000e+00
   1.000e+00
   1.000e+00
   1.000e+01
   1.000e+01
   1.000e+01
   1.000e+01
   1.000e+01
   1.000e+01
   1.000e+01
   1.000e+01
   1.000e+01
   1.000e+01
   1.000e+01
   1.000e+01
   1.000e+01
   1.000e+01
   1.000e+01
   1.000e+01
   1.000e+01
   1.000e+01
   1.000e+01
   1.000e+01
   1.000e+01
   1.000e+01
   1.000e+01
   1.000e+01
   1.000e+01
   1.000e+00
   1.000e+01
   1.000e+01
   1.000e+00
   1.000e+01
   1.000e+00
   1.000e+00
   1.000e+00
   1.000e+00
   1.000e+00
   1.000e+00
   1.000e+00
   1.000e+00
   1.000e+00
   1.000e+01
   1.000e+00
   1.000e+00
   1.000e+01
   1.000e+01
   1.000e+01
   1.000e+00
   1.000e+01
   1.000e+01
   1.000e+01
   1.000e+01
   1.000e+01
   1.000e+01
   1.000e+01
   1.000e+01
   1.000e+01
   1.000e+01
   1.000e+01
   1.000e+01
   1.000e+01
   1.000e+01
   1.000e+01
   1.000e+01
   1.000e+01
   1.000e+01
   1.000e+01
   1.000e+00
   1.000e+01
   1.000e+00
   1.000e+01
   1.000e+00
   1.000e+01
   1.000e+00
   1.000e+00
   1.000e+01
   1.000e+00
   1.000e+00
   1.000e+00
   1.000e+00
   1.000e+00
   1.000e+00
   1.000e+00
   1.000e+00
   1.000e+00
   1.000e+00
   1.000e+00
   1.000e+00
   1.000e+00
   1.000e+00
   1.000e+01
   1.000e+00
   1.000e+00
   1.000e+00
   1.000e+01
   1.000e+00
   1.000e+01
   1.000e+00
   1.000e+01
   1.000e+00
   1.000e+00
   1.000e+01
   1.000e+01
   1.000e+00
   1.000e+01
   1.000e+00
   1.000e+01
   1.000e+01
   1.000e+01
   1.000e+01
   1.000e+00
   1.000e+01
   1.000e+01
   1.000e+01
   1.000e+01
   1.000e+01
   1.000e+01
   1.000e+01
   1.000e+01
   1.000e+01
   1.000e+01
   1.000e+01
   1.000e+01
   1.000e+01
   1.000e+01
   1.000e+01
   1.000e+00
   1.000e+01
   1.000e+00
   1.000e+01
   1.000e+00
   1.000e+01
   1.000e+00
   1.000e+01
   1.000e+00
   1.000e+00
   1.000e+00
   1.000e+00
   1.000e+00
   1.000e+00
   1.000e+00
   1.000e+00
   1.000e+00
   1.000e+00
   1.000e+00
   1.000e+00
   1.000e+00
   1.000e+00
   1.000e+00
   1.000e+00
   1.000e+00
   1.000e+00
   1.000e+01
   1.000e+00
   1.000e+01
   1.000e+00
   1.000e+01
   1.000e+00
   1.000e+01
   1.000e+01
   1.000e+01
   1.000e+00
   1.000e+01
   1.000e+01
   1.000e+01
   1.000e+01
   1.000e+01
   1.000e+01
   1.000e+01
   1.000e+01
   1.000e+01
   1.000e+01
   1.000e+01
   1.000e+01
   1.000e+01
   1.000e+00
   1.000e+01
   1.000e+01
   1.000e+01
   1.000e+00
   1.000e+00
   1.000e+00
   1.000e+00
   1.000e+00
   1.000e+00
   1.000e+00
   1.000e+00
   1.000e+00
   1.000e+00
   1.000e+00
   1.000e+00
   1.000e+00
   1.000e+00
   1.000e+00
   1.000e+00
   1.000e+00
   1.000e+00
   1.000e+01
   1.000e+00
   1.000e+01
   1.000e+00
   1.000e+01
   1.000e+00
   1.000e+01
   1.000e+01
   1.000e+01
   1.000e+01
   1.000e+01
   1.000e+01
   1.000e+01
   1.000e+01
   1.000e+01
   1.000e+01
   1.000e+01
   1.000e+00
   1.000e+01
   1.000e+00
   1.000e+00
   1.000e+01
   1.000e+00
   1.000e+01
   1.000e+00
   1.000e+00
   1.000e+00
   1.000e+00
   1.000e+00
   1.000e+00
   1.000e+00
   1.000e+00
   1.000e+00
   1.000e+00
   1.000e+01
   1.000e+00
   1.000e+00
   1.000e+00
   1.000e+00
   1.000e+00
   1.000e+00
   1.000e+00
   1.000e+00
   1.000e+00
   1.000e+00
   1.000e+00
   1.000e+00
   1.000e+01
   1.000e+00
   1.000e+00
   1.000e+01
   1.000e+01
   1.000e+01
   1.000e+01
   1.000e+01
   1.000e+01
   1.000e+01
   1.000e+01
   1.000e+01
   1.000e+01
   1.000e+01
   1.000e+01
   1.000e+00
   1.000e+01
   1.000e+01
   1.000e+01
   1.000e+00
   1.000e+01
   1.000e+00
   1.000e+00
   1.000e+01
   1.000e+00
   1.000e+01
   1.000e+00
   1.000e+00
   1.000e+00
   1.000e+00
   1.000e+01
   1.000e+00
   1.000e+00
   1.000e+00
   1.000e+00
   1.000e+01
   1.000e+00
   1.000e+00
   1.000e+00
   1.000e+00
   1.000e+01
   1.000e+00
   1.000e+01
   1.000e+00
   1.000e+01
   1.000e+00
   1.000e+01
   1.000e+01
   1.000e+00
   1.000e+01
   1.000e+00
   1.000e+01
   1.000e+00
   1.000e+01
   1.000e+01
   1.000e+00
   1.000e+01
   1.000e+00
   1.000e+00
   1.000e+01
   1.000e+00
   1.000e+01
   1.000e+00
   1.000e+00
   1.000e+00
   1.000e+00
   1.000e+00
   1.000e+01
   1.000e+00
   1.000e+01
   1.000e+01
   1.000e+01
   1.000e+00
   1.000e+01
   1.000e+00
   1.000e+01
   1.000e+00
   1.000e+01
   1.000e+01
   1.000e+00
   1.000e+01
   1.000e+00
   1.000e+00
   1.000e+01
   1.000e+00
   1.000e+01
   1.000e+00
   1.000e+00
   1.000e+00
   1.000e+00
   1.000e+01
   1.000e+00
   1.000e+00
   1.000e+00
   1.000e+00
   1.000e+01
   1.000e+00
   1.000e+00
   1.000e+00
   1.000e+00
   1.000e+01
   1.000e+00
   1.000e+01
   1.000e+00
   1.000e+01
   1.000e+00
   1.000e+01
   1.000e+01
   1.000e+01
   1.000e+01
   1.000e+01
   1.000e+01
   1.000e+01
   1.000e+01
   1.000e+01
   1.000e+01
   1.000e+01
   1.000e+01
   1.000e+01
   1.000e+01
   1.000e+01
   1.000e+01
   1.000e+01
   1.000e+01
   1.000e+01
   1.000e+01
   1.000e+00
   1.000e+01
   1.000e+00
   1.000e+00
   1.000e+01
   1.000e+00
   1.000e+01
   1.000e+00
   1.000e+00
   1.000e+00
   1.000e+00
   1.000e+00
   1.000e+01
   1.000e+00
   1.000e+00
   1.000e+01
   1.000e+01
   1.000e+01
   1.000e+01
   1.000e+01
   1.000e+01
   1.000e+01
   1.000e+01
   1.000e+01
   1.000e+01
   1.000e+01
   1.000e+01
   1.000e+01
   1.000e+01
   1.000e+01
   1.000e+01
   1.000e+01
   1.000e+01
   1.000e+01
   1.000e+01
   1.000e+01
   1.000e+01
   1.000e+01
   1.000e+01
   1.000e+01
   1.000e+00
   1.000e+01
   1.000e+00
   1.000e+00
   1.000e+01
   1.000e+00
   1.000e+01
   1.000e+00
   1.000e+00
   1.000e+00
   1.000e+00
   1.000e+00
   1.000e+01
   1.000e+00
   1.000e+00
   1.000e+01
   1.000e+01
   1.000e+01
   1.000e+01
   1.000e+01
   1.000e+01
   1.000e+01
   1.000e+01
   1.000e+01
   1.000e+01
   1.000e+01
   1.000e+01
   1.000e+01
   1.000e+01
   1.000e+01
   1.000e+01
   1.000e+01
   1.000e+01
   1.000e+01
   1.000e+01
   1.000e+01
   1.000e+01
   1.000e+01
   1.000e+01
   1.000e+01
   1.000e+00
   1.000e+01
   1.000e+00
   1.000e+01
   1.000e+00
   1.000e+01
   1.000e+01
   1.000e+00
   1.000e+00
   1.000e+00
   1.000e+00
   1.000e+00
   1.000e+01
   1.000e+00
   1.000e+00
   1.000e+01
   1.000e+01
   1.000e+01
   1.000e+01
   1.000e+01
   1.000e+01
   1.000e+01
   1.000e+01
   1.000e+01
   1.000e+01
   1.000e+01
   1.000e+01
   1.000e+01
   1.000e+01
   1.000e+01
   1.000e+01
   1.000e+01
   1.000e+01
   1.000e+01
   1.000e+01
   1.000e+01
   1.000e+01
   1.000e+01
   1.000e+01
   1.000e+01
   1.000e+01
   1.000e+00
   1.000e+01
   1.000e+01
   1.000e+01
   1.000e+00
   1.000e+00
   1.000e+00
   1.000e+00
   1.000e+01
   1.000e+00
   1.000e+00
   1.000e+00
   1.000e+00
   1.000e+01
   1.000e+00
   1.000e+01
   1.000e+00
   1.000e+01
   1.000e+01
   1.000e+01
   1.000e+01
   1.000e+01
   1.000e+01
   1.000e+01
   1.000e+01
   1.000e+01
   1.000e+01
   1.000e+01
   1.000e+01
   1.000e+01
   1.000e+01
   1.000e+01
   1.000e+01
   1.000e+01
   1.000e+01
   1.000e+01
   1.000e+01
   1.000e+01
   1.000e+01
   1.000e+01
   1.000e+01
   1.000e+01
   1.000e+01
   1.000e+01
   1.000e+00
   1.000e+01
   1.000e+00
   1.000e+00
   1.000e+01
   1.000e+00
   1.000e+01
   1.000e+00
   1.000e+00
   1.000e+00
   1.000e+01
   1.000e+01
   1.000e+01
   1.000e+01
   1.000e+01
   1.000e+01
   1.000e+01
   1.000e+01
   1.000e+01
   1.000e+01
   1.000e+01
   1.000e+01
   1.000e+01
   1.000e+01
   1.000e+01
   1.000e+01
   1.000e+01
   1.000e+01
   1.000e+01
   1.000e+01
   1.000e+01
   1.000e+01
   1.000e+01
   1.000e+01
   1.000e+01
   1.000e+01
   1.000e+01
   1.000e+01
   1.000e+01
   1.000e+01
   1.000e+01
   1.000e+00
   1.000e+01
   1.000e+01
   1.000e+01
   1.000e+00
   1.000e+01
   1.000e+00
   1.000e+01
   1.000e+00
   1.000e+01
   1.000e+01
   1.000e+00
   1.000e+01
   1.000e+01
   1.000e+01
   1.000e+01
   1.000e+01
   1.000e+01
   1.000e+01
   1.000e+01
   1.000e+01
   1.000e+01
   1.000e+01
   1.000e+01
   1.000e+01
   1.000e+01
   1.000e+01
   1.000e+01
   1.000e+01
   1.000e+01
   1.000e+01
   1.000e+01
   1.000e+01
   1.000e+01
   1.000e+01
   1.000e+01
   1.000e+01
   1.000e+01
   1.000e+01
   1.000e+01
   1.000e+01
   1.000e+01
   1.000e+01
   1.000e+01
   1.000e+01
   1.000e+01
   1.000e+01
   1.000e+01
   1.000e+01
   1.000e+01
   1.000e+01
   1.000e+01
   1.000e+01
   1.000e+01
   1.000e+01
   1.000e+01
   1.000e+01
   1.000e+01
   1.000e+01
   1.000e+01
   1.000e+01
   1.000e+01
   1.000e+01
   1.000e+01
   1.000e+01
   1.000e+01
   1.000e+01
   1.000e+01
   1.000e+01
   1.000e+01
   1.000e+01
   1.000e+01
   1.000e+01
   1.000e+01
   1.000e+01
   1.000e+01
   1.000e+01
   1.000e+01
   1.000e+01
   1.000e+01
   1.000e+01
   1.000e+01
   1.000e+01
   1.000e+01
   1.000e+01
   1.000e+01
   1.000e+01
   1.000e+01
   1.000e+01
   1.000e+01
   1.000e+01
   1.000e+01
   1.000e+01
   1.000e+01
   1.000e+01
   1.000e+01
   1.000e+01
   1.000e+01
   1.000e+01
   1.000e+01
   1.000e+01
   1.000e+01
   1.000e+01
   1.000e+01
   1.000e+01
   1.000e+01
   1.000e+01
   1.000e+01
   1.000e+01
   1.000e+01
   1.000e+01
   1.000e+01
   1.000e+01
   1.000e+01
   1.000e+01
   1.000e+01
   1.000e+01
   1.000e+01
   1.000e+01
   1.000e+01
   1.000e+01
   1.000e+01
   1.000e+01
   1.000e+01
   1.000e+01
   1.000e+01
   1.000e+01
   1.000e+01
   1.000e+01
   1.000e+01
   1.000e+01
   1.000e+01
   1.000e+01
   1.000e+01
   1.000e+01
   1.000e+01
   1.000e+01
   1.000e+01
   1.000e+01
   1.000e+01
   1.000e+01
   1.000e+01
   1.000e+01
   1.000e+01
   1.000e+01
   1.000e+01
   1.000e+01
   1.000e+01
   1.000e+01
   1.000e+01
   1.000e+01
   1.000e+01
   1.000e+01
   1.000e+01
   1.000e+01
   1.000e+01
   1.000e+01
   1.000e+01
   1.000e+01
   1.000e+01
   1.000e+01
   1.000e+01
   1.000e+01
   1.000e+01
   1.000e+01
   1.000e+01
   1.000e+01
   1.000e+01
   1.000e+01
   1.000e+01
   1.000e+01
   1.000e+01
   1.000e+01
   1.000e+01
   1.000e+01
   1.000e+01
   1.000e+01
   1.000e+01
   1.000e+01
   1.000e+01
   1.000e+01
   1.000e+01
   1.000e+01
   1.000e+01
   1.000e+01
   1.000e+01
   1.000e+01
   1.000e+01
   1.000e+01
   1.000e+01
   1.000e+01
   1.000e+01
   1.000e+01
   1.000e+01
   1.000e+01
   1.000e+01
   1.000e+01
   1.000e+01
   1.000e+01
   1.000e+01
   1.000e+01
   1.000e+01
   1.000e+01
   1.000e+01
   1.000e+01
   1.000e+01
   1.000e+01
   1.000e+01
   1.000e+01
   1.000e+01
   1.000e+01
   1.000e+01
   1.000e+01
   1.000e+01
   1.000e+01
   1.000e+01
   1.000e+01
   1.000e+01
   1.000e+01
   1.000e+01
   1.000e+01
   1.000e+01
   1.000e+01
   1.000e+01
   1.000e+01
   1.000e+01
   1.000e+01
   1.000e+01
   1.000e+01
   1.000e+01
   1.000e+01
   1.000e+01
   1.000e+01
   1.000e+01
   1.000e+01
   1.000e+01
   1.000e+01
   1.000e+01
   1.000e+01
   1.000e+01
   1.000e+01
   1.000e+01
   1.000e+01
   1.000e+01
   1.000e+01
   1.000e+01
   1.000e+01
   1.000e+01
   1.000e+01
   1.000e+01
   1.000e+01
   1.000e+01
   1.000e+01
   1.000e+01
   1.000e+01
   1.000e+01
   1.000e+01
   1.000e+01
   1.000e+01
   1.000e+01
   1.000e+01
   1.000e+01
   1.000e+01
   1.000e+01
   1.000e+01
   1.000e+01
   1.000e+01
   1.000e+01
   1.000e+01
   1.000e+01
   1.000e+01
   1.000e+01
   1.000e+01
   1.000e+01
   1.000e+01
   1.000e+01
   1.000e+01
   1.000e+01
   1.000e+01
   1.000e+01
   1.000e+01
   1.000e+01
   1.000e+01
   1.000e+01
   1.000e+01
   1.000e+01
   1.000e+01
   1.000e+01
   1.000e+01
   1.000e+01
   1.000e+01
   1.000e+01
   1.000e+01
   1.000e+01
   1.000e+01
   1.000e+01
   1.000e+01
   1.000e+01
   1.000e+01
   1.000e+01
   1.000e+01
   1.000e+01
   1.000e+01
   1.000e+01
   1.000e+01
   1.000e+01
   1.000e+01
   1.000e+01
   1.000e+01
   1.000e+01
   1.000e+01
   1.000e+01
   1.000e+01
   1.000e+01
   1.000e+01
   1.000e+01
   1.000e+01
   1.000e+01
   1.000e+01
   1.000e+01
   1.000e+01
   1.000e+01
   1.000e+01
   1.000e+01
   1.000e+01
   1.000e+01
   1.000e+01
   1.000e+01
   1.000e+01
   1.000e+01
   1.000e+01
   1.000e+01
   1.000e+01
   1.000e+01
   1.000e+01
   1.000e+01
   1.000e+01
   1.000e+01
   1.000e+01
   1.000e+01
   1.000e+01
   1.000e+01
   1.000e+01
   1.000e+01
   1.000e+01
   1.000e+01
   1.000e+01
   1.000e+01
   1.000e+01
   1.000e+01
   1.000e+01
   1.000e+01
   1.000e+01
   1.000e+01
   1.000e+01
   1.000e+01
   1.000e+01
   1.000e+01
   1.000e+01
   1.000e+01
   1.000e+01
   1.000e+01
   1.000e+01
   1.000e+01
   1.000e+01
   1.000e+01
   1.000e+01
   1.000e+01
   1.000e+01
   1.000e+00
   1.000e+01
   1.000e+01
   1.000e+01
   1.000e+01
   1.000e+00
   1.000e+01
   1.000e+00
   1.000e+01
   1.000e+00
   1.000e+01
   1.000e+01
   1.000e+00
   1.000e+01
   1.000e+00
   1.000e+01
   1.000e+00
   1.000e+01
   1.000e+01
   1.000e+01
   1.000e+01
   1.000e+00
   1.000e+01
   1.000e+01
   1.000e+01
   1.000e+01
   1.000e+01
   1.000e+01
   1.000e+01
   1.000e+01
   1.000e+00
   1.000e+01
   1.000e+00
   1.000e+01
   1.000e+00
   1.000e+01
   1.000e+01
   1.000e+00
   1.000e+01
   1.000e+00
   1.000e+01
   1.000e+00
   1.000e+01
   1.000e+01
   1.000e+00
   1.000e+01
   1.000e+00
   1.000e+01
   1.000e+00
   1.000e+01
   1.000e+01
   1.000e+01
   1.000e+01
   1.000e+01
   1.000e+01
   1.000e+01
   1.000e+01
   1.000e+01
   1.000e+01
   1.000e+01
   1.000e+01
   1.000e+01
   1.000e+01
   1.000e+01
   1.000e+01
   1.000e+01
   1.000e+01
   1.000e+00
   1.000e+00
   1.000e+00
   1.000e+00
   1.000e+01
   1.000e+00
   1.000e+00
   1.000e+00
   1.000e+01
   1.000e+00
   1.000e+01
   1.000e+00
   1.000e+01
   1.000e+00
   1.000e+01
   1.000e+01
   1.000e+01
   1.000e+00
   1.000e+01
   1.000e+01
   1.000e+01
   1.000e+01
   1.000e+01
   1.000e+00
   1.000e+01
   1.000e+01
   1.000e+01
   1.000e+00
   1.000e+01
   1.000e+00
   1.000e+00
   1.000e+00
   1.000e+00
   1.000e+00
   1.000e+00
   1.000e+01
   1.000e+00
   1.000e+01
   1.000e+00
   1.000e+01
   1.000e+00
   1.000e+01
   1.000e+01
   1.000e+01
   1.000e+01
   1.000e+01
   1.000e+01
   1.000e+01
   1.000e+01
   1.000e+01
   1.000e+01
   1.000e+01
   1.000e+01
   1.000e+01
   1.000e+01
   1.000e+01
   1.000e+01
   1.000e+01
   1.000e+00
   1.000e+00
   1.000e+00
   1.000e+00
   1.000e+01
   1.000e+00
   1.000e+00
   1.000e+00
   1.000e+00
   1.000e+01
   1.000e+00
   1.000e+01
   1.000e+00
   1.000e+01
   1.000e+00
   1.000e+01
   1.000e+01
   1.000e+01
   1.000e+00
   1.000e+01
   1.000e+01
   1.000e+01
   1.000e+00
   1.000e+01
   1.000e+01
   1.000e+01
   1.000e+00
   1.000e+00
   1.000e+00
   1.000e+00
   1.000e+00
   1.000e+01
   1.000e+00
   1.000e+01
   1.000e+00
   1.000e+01
   1.000e+00
   1.000e+01
   1.000e+01
   1.000e+01
   1.000e+01
   1.000e+01
   1.000e+01
   1.000e+01
   1.000e+01
   1.000e+01
   1.000e+01
   1.000e+01
   1.000e+01
   1.000e+01
   1.000e+01
   1.000e+01
   1.000e+01
   1.000e+01
   1.000e+00
   1.000e+01
   1.000e+00
   1.000e+01
   1.000e+00
   1.000e+01
   1.000e+01
   1.000e+00
   1.000e+00
   1.000e+00
   1.000e+00
   1.000e+00
   1.000e+01
   1.000e+00
   1.000e+01
   1.000e+00
   1.000e+01
   1.000e+00
   1.000e+01
   1.000e+01
   1.000e+01
   1.000e+00
   1.000e+01
   1.000e+00
   1.000e+01
   1.000e+00
   1.000e+00
   1.000e+01
   1.000e+00
   1.000e+01
   1.000e+00
   1.000e+00
   1.000e+00
   1.000e+00
   1.000e+00
   1.000e+01
   1.000e+01
   1.000e+00
   1.000e+01
   1.000e+00
   1.000e+01
   1.000e+01
   1.000e+01
   1.000e+01
   1.000e+01
   1.000e+01
   1.000e+01
   1.000e+01
   1.000e+01
   1.000e+01
   1.000e+01
   1.000e+01
   1.000e+01
   1.000e+01
   1.000e+01
   1.000e+01
   1.000e+01
   1.000e+01
   1.000e+00
   1.000e+01
   1.000e+00
   1.000e+01
   1.000e+00
   1.000e+01
   1.000e+01
   1.000e+00
   1.000e+00
   1.000e+00
   1.000e+00
   1.000e+01
   1.000e+00
   1.000e+00
   1.000e+00
   1.000e+00
   1.000e+00
   1.000e+01
   1.000e+00
   1.000e+00
   1.000e+00
   1.000e+00
   1.000e+00
   1.000e+00
   1.000e+00
   1.000e+00
   1.000e+00
   1.000e+01
   1.000e+00
   1.000e+00
   1.000e+01
   1.000e+01
   1.000e+01
   1.000e+01
   1.000e+01
   1.000e+01
   1.000e+01
   1.000e+01
   1.000e+01
   1.000e+01
   1.000e+01
   1.000e+01
   1.000e+01
   1.000e+01
   1.000e+01
   1.000e+01
   1.000e+01
   1.000e+01
   1.000e+01
   1.000e+00
   1.000e+01
   1.000e+00
   1.000e+01
   1.000e+00
   1.000e+01
   1.000e+01
   1.000e+00
   1.000e+00
   1.000e+00
   1.000e+00
   1.000e+00
   1.000e+00
   1.000e+00
   1.000e+00
   1.000e+00
   1.000e+00
   1.000e+01
   1.000e+01
   1.000e+00
   1.000e+01
   1.000e+00
   1.000e+01
   1.000e+01
   1.000e+01
   1.000e+01
   1.000e+01
   1.000e+01
   1.000e+01
   1.000e+01
   1.000e+01
   1.000e+01
   1.000e+01
   1.000e+01
   1.000e+01
   1.000e+01
   1.000e+01
   1.000e+01
   1.000e+01
   1.000e+01
   1.000e+01
   1.000e+01
   1.000e+00
   1.000e+01
   1.000e+01
   1.000e+01
   1.000e+01
   1.000e+00
   1.000e+00
   1.000e+01
   1.000e+00
   1.000e+01
   1.000e+00
   1.000e+01
   1.000e+00
   1.000e+00
   1.000e+00
   1.000e+00
   1.000e+00
   1.000e+00
   1.000e+00
   1.000e+00
   1.000e+01
   1.000e+00
   1.000e+01
   1.000e+00
   1.000e+01
   1.000e+00
   1.000e+01
   1.000e+01
   1.000e+01
   1.000e+01
   1.000e+01
   1.000e+01
   1.000e+01
   1.000e+01
   1.000e+01
   1.000e+01
   1.000e+01
   1.000e+01
   1.000e+01
   1.000e+01
   1.000e+01
   1.000e+01
   1.000e+01
   1.000e+01
   1.000e+01
   1.000e+01
   1.000e+01
   1.000e+00
   1.000e+01
   1.000e+00
   1.000e+01
   1.000e+00
   1.000e+01
   1.000e+00
   1.000e+00
   1.000e+00
   1.000e+00
   1.000e+00
   1.000e+00
   1.000e+00
   1.000e+00
   1.000e+00
   1.000e+01
   1.000e+00
   1.000e+01
   1.000e+00
   1.000e+01
   1.000e+00
   1.000e+01
   1.000e+00
   1.000e+01
   1.000e+00
   1.000e+01
   1.000e+00
   1.000e+01
   1.000e+01
   1.000e+01
   1.000e+01
   1.000e+01
   1.000e+01
   1.000e+01
   1.000e+01
   1.000e+01
   1.000e+01
   1.000e+01
   1.000e+01
   1.000e+01
   1.000e+01
   1.000e+01
   1.000e+01
   1.000e+01
   1.000e+01
   1.000e+00
   1.000e+01
   1.000e+00
   1.000e+00
   1.000e+01
   1.000e+00
   1.000e+01
   1.000e+00
   1.000e+01
   1.000e+00
   1.000e+00
   1.000e+00
   1.000e+00
   1.000e+00
   1.000e+00
   1.000e+00
   1.000e+00
   1.000e+00
   1.000e+00
   1.000e+00
   1.000e+00
   1.000e+00
   1.000e+00
   1.000e+01
   1.000e+00
   1.000e+00
   1.000e+00
   1.000e+00
   1.000e+01
   1.000e+00
   1.000e+00
   1.000e+00
   1.000e+01
   1.000e+00
   1.000e+01
   1.000e+00
   1.000e+01
   1.000e+00
   1.000e+01
   1.000e+01
   1.000e+01
   1.000e+01
   1.000e+00
   1.000e+01
   1.000e+01
   1.000e+01
   1.000e+01
   1.000e+01
   1.000e+01
   1.000e+01
   1.000e+01
   1.000e+01
   1.000e+01
   1.000e+01
   1.000e+01
   1.000e+01
   1.000e+01
   1.000e+00
   1.000e+01
   1.000e+01
   1.000e+01
   1.000e+00
   1.000e+01
   1.000e+00
   1.000e+00
   1.000e+00
   1.000e+00
   1.000e+00
   1.000e+00
   1.000e+00
   1.000e+00
   1.000e+00
   1.000e+00
   1.000e+00
   1.000e+00
   1.000e+00
   1.000e+00
   1.000e+00
   1.000e+00
   1.000e+00
   1.000e+00
   1.000e+00
   1.000e+01
   1.000e+00
   1.000e+01
   1.000e+00
   1.000e+01
   1.000e+00
   1.000e+01
   1.000e+01
   1.000e+01
   1.000e+00
   1.000e+01
   1.000e+01
   1.000e+01
   1.000e+01
   1.000e+01
   1.000e+01
   1.000e+01
   1.000e+01
   1.000e+01
   1.000e+01
   1.000e+01
   1.000e+01
   1.000e+00
   1.000e+01
   1.000e+00
   1.000e+00
   1.000e+01
   1.000e+00
   1.000e+01
   1.000e+00
   1.000e+00
   1.000e+00
   1.000e+00
   1.000e+00
   1.000e+00
   1.000e+00
   1.000e+00
   1.000e+00
   1.000e+00
   1.000e+00
   1.000e+00
   1.000e+00
   1.000e+00
   1.000e+00
   1.000e+00
   1.000e+00
   1.000e+00
   1.000e+01
   1.000e+00
   1.000e+01
   1.000e+00
   1.000e+01
   1.000e+00
   1.000e+01
   1.000e+01
   1.000e+01
   1.000e+01
   1.000e+01
   1.000e+01
   1.000e+01
   1.000e+01
   1.000e+01
   1.000e+01
   1.000e+01
   1.000e+00
   1.000e+00
   1.000e+01
   1.000e+00
   1.000e+01
   1.000e+00
   1.000e+01
   1.000e+00
   1.000e+00
   1.000e+00
   1.000e+00
   1.000e+00
   1.000e+00
   1.000e+00
   1.000e+01
   1.000e+00
   1.000e+00
   1.000e+00
   1.000e+00
   1.000e+00
   1.000e+00
   1.000e+01
   1.000e+00
   1.000e+00
   1.000e+00
   1.000e+00
   1.000e+00
   1.000e+00
   1.000e+00
   1.000e+00
   1.000e+00
   1.000e+00
   1.000e+00
   1.000e+01
   1.000e+00
   1.000e+01
   1.000e+00
   1.000e+01
   1.000e+00
   1.000e+01
   1.000e+01
   1.000e+01
   1.000e+01
   1.000e+01
   1.000e+01
   1.000e+01
   1.000e+01
   1.000e+01
   1.000e+01
   1.000e+01
   1.000e+00
   1.000e+01
   1.000e+01
   1.000e+01
   1.000e+01
   1.000e+00
   1.000e+00
   1.000e+01
   1.000e+00
   1.000e+01
   1.000e+00
   1.000e+01
   1.000e+00
   1.000e+00
   1.000e+01
   1.000e+00
   1.000e+01
   1.000e+00
   1.000e+01
   1.000e+00
   1.000e+00
   1.000e+01
   1.000e+00
   1.000e+01
   1.000e+00
   1.000e+01
   1.000e+00
   1.000e+01
   1.000e+01
   1.000e+00
   1.000e+01
   1.000e+00
   1.000e+01
   1.000e+00
   1.000e+01
   1.000e+01
   1.000e+01
   1.000e+01
   1.000e+01
   1.000e+00
   1.000e+00
   1.000e+00
   1.000e+00
   1.000e+01
   1.000e+00
   1.000e+00
   1.000e+00
   1.000e+00
   1.000e+01
   1.000e+00
   1.000e+01
   1.000e+00
   1.000e+01
   1.000e+00
   1.000e+00
   1.000e+01
   1.000e+01
   1.000e+01
   1.000e+01
   1.000e+00
   1.000e+01
   1.000e+01
   1.000e+01
   1.000e+01
   1.000e+00
   1.000e+00
   1.000e+01
   1.000e+00
   1.000e+01
   1.000e+00
   1.000e+01
   1.000e+00
   1.000e+00
   1.000e+01
   1.000e+00
   1.000e+01
   1.000e+00
   1.000e+01
   1.000e+00
   1.000e+00
   1.000e+01
   1.000e+00
   1.000e+01
   1.000e+00
   1.000e+01
   1.000e+00
   1.000e+01
   1.000e+01
   1.000e+00
   1.000e+01
   1.000e+00
   1.000e+01
   1.000e+01
   1.000e+01
   1.000e+01
   1.000e+01
   1.000e+01
   1.000e+01
   1.000e+01
   1.000e+01
   1.000e+01
   1.000e+01
   1.000e+01
   1.000e+01
   1.000e+01
   1.000e+01
   1.000e+01
   1.000e+01
   1.000e+01
   1.000e+01
   1.000e+01
   1.000e+00
   1.000e+00
   1.000e+00
   1.000e+00
   1.000e+01
   1.000e+00
   1.000e+00
   1.000e+00
   1.000e+00
   1.000e+01
   1.000e+00
   1.000e+01
   1.000e+00
   1.000e+01
   1.000e+00
   1.000e+01
   1.000e+01
   1.000e+01
   1.000e+01
   1.000e+01
   1.000e+01
   1.000e+01
   1.000e+01
   1.000e+01
   1.000e+01
   1.000e+01
   1.000e+01
   1.000e+01
   1.000e+01
   1.000e+01
   1.000e+01
   1.000e+01
   1.000e+01
   1.000e+01
   1.000e+01
   1.000e+01
   1.000e+01
   1.000e+01
   1.000e+01
   1.000e+01
   1.000e+00
   1.000e+00
   1.000e+00
   1.000e+00
   1.000e+01
   1.000e+00
   1.000e+00
   1.000e+00
   1.000e+00
   1.000e+01
   1.000e+00
   1.000e+01
   1.000e+00
   1.000e+01
   1.000e+00
   1.000e+01
   1.000e+01
   1.000e+01
   1.000e+01
   1.000e+01
   1.000e+01
   1.000e+01
   1.000e+01
   1.000e+01
   1.000e+01
   1.000e+01
   1.000e+01
   1.000e+01
   1.000e+01
   1.000e+01
   1.000e+01
   1.000e+01
   1.000e+01
   1.000e+01
   1.000e+01
   1.000e+01
   1.000e+01
   1.000e+01
   1.000e+01
   1.000e+01
   1.000e+00
   1.000e+01
   1.000e+00
   1.000e+01
   1.000e+00
   1.000e+01
   1.000e+01
   1.000e+00
   1.000e+00
   1.000e+00
   1.000e+00
   1.000e+01
   1.000e+00
   1.000e+01
   1.000e+00
   1.000e+01
   1.000e+00
   1.000e+01
   1.000e+01
   1.000e+01
   1.000e+01
   1.000e+01
   1.000e+01
   1.000e+01
   1.000e+01
   1.000e+01
   1.000e+01
   1.000e+01
   1.000e+01
   1.000e+01
   1.000e+01
   1.000e+01
   1.000e+01
   1.000e+01
   1.000e+01
   1.000e+01
   1.000e+01
   1.000e+01
   1.000e+01
   1.000e+01
   1.000e+01
   1.000e+01
   1.000e+00
   1.000e+01
   1.000e+00
   1.000e+01
   1.000e+00
   1.000e+01
   1.000e+01
   1.000e+00
   1.000e+00
   1.000e+00
   1.000e+00
   1.000e+01
   1.000e+00
   1.000e+00
   1.000e+01
   1.000e+01
   1.000e+01
   1.000e+00
   1.000e+01
   1.000e+01
   1.000e+01
   1.000e+01
   1.000e+01
   1.000e+01
   1.000e+01
   1.000e+01
   1.000e+01
   1.000e+01
   1.000e+01
   1.000e+01
   1.000e+01
   1.000e+01
   1.000e+01
   1.000e+01
   1.000e+01
   1.000e+01
   1.000e+01
   1.000e+01
   1.000e+01
   1.000e+01
   1.000e+01
   1.000e+01
   1.000e+01
   1.000e+01
   1.000e+01
   1.000e+00
   1.000e+00
   1.000e+01
   1.000e+00
   1.000e+01
   1.000e+00
   1.000e+01
   1.000e+00
   1.000e+00
   1.000e+01
   1.000e+01
   1.000e+00
   1.000e+01
   1.000e+00
   1.000e+01
   1.000e+01
   1.000e+01
   1.000e+01
   1.000e+01
   1.000e+01
   1.000e+01
   1.000e+01
   1.000e+01
   1.000e+01
   1.000e+01
   1.000e+01
   1.000e+01
   1.000e+01
   1.000e+01
   1.000e+01
   1.000e+01
   1.000e+01
   1.000e+01
   1.000e+01
   1.000e+01
   1.000e+01
   1.000e+01
   1.000e+01
   1.000e+01
   1.000e+01
   1.000e+01
   1.000e+01
   1.000e+00
   1.000e+01
   1.000e+01
   1.000e+01
   1.000e+01
   1.000e+00
   1.000e+01
   1.000e+01
   1.000e+01
   1.000e+01
   1.000e+01
   1.000e+01
   1.000e+01
   1.000e+01
   1.000e+01
   1.000e+01
   1.000e+01
   1.000e+01
   1.000e+01
   1.000e+01
   1.000e+01
   1.000e+01
   1.000e+01
   1.000e+01
   1.000e+01
   1.000e+01
   1.000e+01
   1.000e+01
   1.000e+01
   1.000e+01
   1.000e+01
   1.000e+01
   1.000e+01
   1.000e+01
   1.000e+01
   1.000e+01
   1.000e+01
   1.000e+01
   1.000e+01
   1.000e+01
   1.000e+01
   1.000e+01
   1.000e+01
   1.000e+01
   1.000e+01
   1.000e+01
   1.000e+01
   1.000e+01
   1.000e+01
   1.000e+01
   1.000e+01
   1.000e+01
   1.000e+01
   1.000e+01
   1.000e+01
   1.000e+01
   1.000e+01
   1.000e+01
   1.000e+01
   1.000e+01
   1.000e+01
   1.000e+01
   1.000e+01
   1.000e+01
   1.000e+01
   1.000e+01
   1.000e+01
   1.000e+01
   1.000e+01
   1.000e+01
   1.000e+01
   1.000e+01
   1.000e+01
   1.000e+01
   1.000e+01
   1.000e+01
   1.000e+01
   1.000e+01
   1.000e+01
   1.000e+01
   1.000e+01
   1.000e+01
   1.000e+01
   1.000e+01
   1.000e+01
   1.000e+01
   1.000e+01
   1.000e+01
   1.000e+01
   1.000e+01
   1.000e+01
   1.000e+01
   1.000e+01
   1.000e+01
   1.000e+01
   1.000e+01
   1.000e+01
   1.000e+01
   1.000e+01
   1.000e+01
   1.000e+01
   1.000e+01
   1.000e+01
   1.000e+01
   1.000e+01
   1.000e+01
   1.000e+01
   1.000e+01
   1.000e+01
   1.000e+01
   1.000e+01
   1.000e+01
   1.000e+01
   1.000e+01
   1.000e+01
   1.000e+01
   1.000e+01
   1.000e+01
   1.000e+01
   1.000e+01
   1.000e+01
   1.000e+01
   1.000e+01
   1.000e+01
   1.000e+01
   1.000e+01
   1.000e+01
   1.000e+01
   1.000e+01
   1.000e+01
   1.000e+01
   1.000e+01
   1.000e+01
   1.000e+01
   1.000e+01
   1.000e+01
   1.000e+01
   1.000e+01
   1.000e+01
   1.000e+01
   1.000e+01
   1.000e+01
   1.000e+01
   1.000e+01

SCALARS vonMisesStress float
LOOKUP_TABLE default
   0.000e+00
   0.000e+00
   0.000e+00
   0.000e+00
   0.000e+00
   0.000e+00
   0.000e+00
   0.000e+00
   0.000e+00
   0.000e+00
   0.000e+00
   0.000e+00
   0.000e+00
   0.000e+00
   0.000e+00
   0.000e+00
   0.000e+00
   0.000e+00
   0.000e+00
   0.000e+00
   0.000e+00
   0.000e+00
   0.000e+00
   0.000e+00
   0.000e+00
   0.000e+00
   0.000e+00
   0.000e+00
   0.000e+00
   0.000e+00
   0.000e+00
   0.000e+00
   0.000e+00
   0.000e+00
   0.000e+00
   0.000e+00
   0.000e+00
   0.000e+00
   0.000e+00
   0.000e+00
   0.000e+00
   0.000e+00
   0.000e+00
   0.000e+00
   0.000e+00
   0.000e+00
   0.000e+00
   0.000e+00
   0.000e+00
   0.000e+00
   0.000e+00
   0.000e+00
   0.000e+00
   0.000e+00
   0.000e+00
   0.000e+00
   0.000e+00
   0.000e+00
   0.000e+00
   0.000e+00
   0.000e+00
   0.000e+00
   0.000e+00
   0.000e+00
   0.000e+00
   0.000e+00
   0.000e+00
   0.000e+00
   0.000e+00
   0.000e+00
   0.000e+00
   0.000e+00
   0.000e+00
   0.000e+00
   0.000e+00
   0.000e+00
   0.000e+00
   0.000e+00
   0.000e+00
   0.000e+00
   0.000e+00
   0.000e+00
   0.000e+00
   0.000e+00
   0.000e+00
   0.000e+00
   0.000e+00
   0.000e+00
   0.000e+00
   0.000e+00
   0.000e+00
   0.000e+00
   0.000e+00
   0.000e+00
   0.000e+00
   0.000e+00
   0.000e+00
   0.000e+00
   0.000e+00
   0.000e+00
   0.000e+00
   0.000e+00
   0.000e+00
   0.000e+00
   0.000e+00
   0.000e+00
   0.000e+00
   0.000e+00
   0.000e+00
   0.000e+00
   0.000e+00
   0.000e+00
   0.000e+00
   0.000e+00
   0.000e+00
   0.000e+00
   0.000e+00
   0.000e+00
   0.000e+00
   0.000e+00
   0.000e+00
   0.000e+00
   0.000e+00
   0.000e+00
   0.000e+00
   0.000e+00
   0.000e+00
   0.000e+00
   0.000e+00
   0.000e+00
   0.000e+00
   0.000e+00
   0.000e+00
   0.000e+00
   0.000e+00
   0.000e+00
   0.000e+00
   0.000e+00
   0.000e+00
   0.000e+00
   0.000e+00
   0.000e+00
   0.000e+00
   0.000e+00
   0.000e+00
   0.000e+00
   0.000e+00
   0.000e+00
   0.000e+00
   0.000e+00
   0.000e+00
   0.000e+00
   0.000e+00
   0.000e+00
   0.000e+00
   0.000e+00
   0.000e+00
   0.000e+00
   0.000e+00
   0.000e+00
   0.000e+00
   0.000e+00
   0.000e+00
   0.000e+00
   0.000e+00
   0.000e+00
   0.000e+00
   0.000e+00
   0.000e+00
   0.000e+00
   0.000e+00
   0.000e+00
   0.000e+00
   0.000e+00
   0.000e+00
   0.000e+00
   0.000e+00
   0.000e+00
   0.000e+00
   0.000e+00
   0.000e+00
   0.000e+00
   0.000e+00
   0.000e+00
   0.000e+00
   0.000e+00
   0.000e+00
   0.000e+00
   0.000e+00
   0.000e+00
   0.000e+00
   0.000e+00
   0.000e+00
   0.000e+00
   0.000e+00
   0.000e+00
   0.000e+00
   0.000e+00
   0.000e+00
   0.000e+00
   0.000e+00
   0.000e+00
   0.000e+00
   0.000e+00
   0.000e+00
   0.000e+00
   0.000e+00
   0.000e+00
   0.000e+00
   0.000e+00
   0.000e+00
   0.000e+00
   0.000e+00
   0.000e+00
   0.000e+00
   0.000e+00
   0.000e+00
   0.000e+00
   0.000e+00
   0.000e+00
   0.000e+00
   0.000e+00
   0.000e+00
   0.000e+00
   0.000e+00
   0.000e+00
   0.000e+00
   0.000e+00
   0.000e+00
   0.000e+00
   0.000e+00
   0.000e+00
   0.000e+00
   0.000e+00
   0.000e+00
   0.000e+00
   0.000e+00
   0.000e+00
   0.000e+00
   0.000e+00
   0.000e+00
   0.000e+00
   0.000e+00
   0.000e+00
   0.000e+00
   0.000e+00
   0.000e+00
   0.000e+00
   0.000e+00
   0.000e+00
   0.000e+00
   0.000e+00
   0.000e+00
   0.000e+00
   0.000e+00
   0.000e+00
   0.000e+00
   0.000e+00
   0.000e+00
   0.000e+00
   0.000e+00
   0.000e+00
   0.000e+00
   0.000e+00
   0.000e+00
   0.000e+00
   0.000e+00
   0.000e+00
   0.000e+00
   0.000e+00
   0.000e+00
   0.000e+00
   0.000e+00
   0.000e+00
   0.000e+00
   0.000e+00
   0.000e+00
   0.000e+00
   0.000e+00
   0.000e+00
   0.000e+00
   0.000e+00
   0.000e+00
   0.000e+00
   0.000e+00
   0.000e+00
   0.000e+00
   0.000e+00
   0.000e+00
   0.000e+00
   0.000e+00
   0.000e+00
   0.000e+00
   0.000e+00
   0.000e+00
   0.000e+00
   0.000e+00
   0.000e+00
   0.000e+00
   0.000e+00
   0.000e+00
   0.000e+00
   0.000e+00
   0.000e+00
   0.000e+00
   0.000e+00
   0.000e+00
   0.000e+00
   0.000e+00
   0.000e+00
   0.000e+00
   0.000e+00
   0.000e+00
   0.000e+00
   0.000e+00
   0.000e+00
   0.000e+00
   0.000e+00
   0.000e+00
   0.000e+00
   0.000e+00
   0.000e+00
   0.000e+00
   0.000e+00
   0.000e+00
   0.000e+00
   0.000e+00
   0.000e+00
   0.000e+00
   0.000e+00
   0.000e+00
   0.000e+00
   0.000e+00
   0.000e+00
   0.000e+00
   0.000e+00
   0.000e+00
   0.000e+00
   0.000e+00
   0.000e+00
   0.000e+00
   0.000e+00
   0.000e+00
   0.000e+00
   0.000e+00
   0.000e+00
   0.000e+00
   0.000e+00
   0.000e+00
   0.000e+00
   0.000e+00
   0.000e+00
   0.000e+00
   0.000e+00
   0.000e+00
   0.000e+00
   0.000e+00
   0.000e+00
   0.000e+00
   0.000e+00
   0.000e+00
   0.000e+00
   0.000e+00
   0.000e+00
   0.000e+00
   0.000e+00
   0.000e+00
   0.000e+00
   0.000e+00
   0.000e+00
   0.000e+00
   0.000e+00
   0.000e+00
   0.000e+00
   0.000e+00
   0.000e+00
   0.000e+00
   0.000e+00
   0.000e+00
   0.000e+00
   0.000e+00
   0.000e+00
   0.000e+00
   0.000e+00
   0.000e+00
   0.000e+00
   0.000e+00
   0.000e+00
   0.000e+00
   0.000e+00
   0.000e+00
   0.000e+00
   0.000e+00
   0.000e+00
   0.000e+00
   0.000e+00
   0.000e+00
   0.000e+00
   0.000e+00
   0.000e+00
   0.000e+00
   0.000e+00
   0.000e+00
   0.000e+00
   0.000e+00
   0.000e+00
   0.000e+00
   0.000e+00
   0.000e+00
   0.000e+00
   0.000e+00
   0.000e+00
   0.000e+00
   0.000e+00
   0.000e+00
   0.000e+00
   0.000e+00
   0.000e+00
   0.000e+00
   0.000e+00
   0.000e+00
   0.000e+00
   0.000e+00
   0.000e+00
   0.000e+00
   0.000e+00
   0.000e+00
   0.000e+00
   0.000e+00
   0.000e+00
   0.000e+00
   0.000e+00
   0.000e+00
   0.000e+00
   0.000e+00
   0.000e+00
   0.000e+00
   0.000e+00
   0.000e+00
   0.000e+00
   0.000e+00
   0.000e+00
   0.000e+00
   0.000e+00
   0.000e+00
   0.000e+00
   0.000e+00
   0.000e+00
   0.000e+00
   0.000e+00
   0.000e+00
   0.000e+00
   0.000e+00
   0.000e+00
   0.000e+00
   0.000e+00
   0.000e+00
   0.000e+00
   0.000e+00
   0.000e+00
   0.000e+00
   0.000e+00
   0.000e+00
   0.000e+00
   0.000e+00
   0.000e+00
   0.000e+00
   0.000e+00
   0.000e+00
   0.000e+00
   0.000e+00
   0.000e+00
   0.000e+00
   0.000e+00
   0.000e+00
   0.000e+00
   0.000e+00
   0.000e+00
   0.000e+00
   0.000e+00
   0.000e+00
   0.000e+00
   0.000e+00
   0.000e+00
   0.000e+00
   0.000e+00
   0.000e+00
   0.000e+00
   0.000e+00
   0.000e+00
   0.000e+00
   0.000e+00
   0.000e+00
   0.000e+00
   0.000e+00
   0.000e+00
   0.000e+00
   0.000e+00
   0.000e+00
   0.000e+00
   0.000e+00
   0.000e+00
   0.000e+00
   0.000e+00
   0.000e+00
   0.000e+00
   0.000e+00
   0.000e+00
   0.000e+00
   0.000e+00
   0.000e+00
   0.000e+00
   0.000e+00
   0.000e+00
   0.000e+00
   0.000e+00
   0.000e+00
   0.000e+00
   0.000e+00
   0.000e+00
   0.000e+00
   0.000e+00
   0.000e+00
   0.000e+00
   0.000e+00
   0.000e+00
   0.000e+00
   0.000e+00
   0.000e+00
   0.000e+00
   0.000e+00
   0.000e+00
   0.000e+00
   0.000e+00
   0.000e+00
   0.000e+00
   0.000e+00
   0.000e+00
   0.000e+00
   0.000e+00
   0.000e+00
   0.000e+00
   0.000e+00
   0.000e+00
   0.000e+00
   0.000e+00
   0.000e+00
   0.000e+00
   0.000e+00
   0.000e+00
   0.000e+00
   0.000e+00
   0.000e+00
   0.000e+00
   0.000e+00
   0.000e+00
   0.000e+00
   0.000e+00
   0.000e+00
   0.000e+00
   0.000e+00
   0.000e+00
   0.000e+00
   0.000e+00
   0.000e+00
   0.000e+00
   0.000e+00
   0.000e+00
   0.000e+00
   0.000e+00
   0.000e+00
   0.000e+00
   0.000e+00
   0.000e+00
   0.000e+00
   0.000e+00
   0.000e+00
   0.000e+00
   0.000e+00
   0.000e+00
   0.000e+00
   0.000e+00
   0.000e+00
   0.000e+00
   0.000e+00
   0.000e+00
   0.000e+00
   0.000e+00
   0.000e+00
   0.000e+00
   0.000e+00
   0.000e+00
   0.000e+00
   0.000e+00
   0.000e+00
   0.000e+00
   0.000e+00
   0.000e+00
   0.000e+00
   0.000e+00
   0.000e+00
   0.000e+00
   0.000e+00
   0.000e+00
   0.000e+00
   0.000e+00
   0.000e+00
   0.000e+00
   0.000e+00
   0.000e+00
   0.000e+00
   0.000e+00
   0.000e+00
   0.000e+00
   0.000e+00
   0.000e+00
   0.000e+00
   0.000e+00
   0.000e+00
   0.000e+00
   0.000e+00
   0.000e+00
   0.000e+00
   0.000e+00
   0.000e+00
   0.000e+00
   0.000e+00
   0.000e+00
   0.000e+00
   0.000e+00
   0.000e+00
   0.000e+00
   0.000e+00
   0.000e+00
   0.000e+00
   0.000e+00
   0.000e+00
   0.000e+00
   0.000e+00
   0.000e+00
   0.000e+00
   0.000e+00
   0.000e+00
   0.000e+00
   0.000e+00
   0.000e+00
   0.000e+00
   0.000e+00
   0.000e+00
   0.000e+00
   0.000e+00
   0.000e+00
   0.000e+00
   0.000e+00
   0.000e+00
   0.000e+00
   0.000e+00
   0.000e+00
   0.000e+00
   0.000e+00
   0.000e+00
   0.000e+00
   0.000e+00
   0.000e+00
   0.000e+00
   0.000e+00
   0.000e+00
   0.000e+00
   0.000e+00
   0.000e+00
   0.000e+00
   0.000e+00
   0.000e+00
   0.000e+00
   0.000e+00
   0.000e+00
   0.000e+00
   0.000e+00
   0.000e+00
   0.000e+00
   0.000e+00
   0.000e+00
   0.000e+00
   0.000e+00
   0.000e+00
   0.000e+00
   0.000e+00
   0.000e+00
   0.000e+00
   0.000e+00
   0.000e+00
   0.000e+00
   0.000e+00
   0.000e+00
   0.000e+00
   0.000e+00
   0.000e+00
   0.000e+00
   0.000e+00
   0.000e+00
   0.000e+00
   0.000e+00
   0.000e+00
   0.000e+00
   0.000e+00
   0.000e+00
   0.000e+00
   0.000e+00
   0.000e+00
   0.000e+00
   0.000e+00
   0.000e+00
   0.000e+00
   0.000e+00
   0.000e+00
   0.000e+00
   0.000e+00
   0.000e+00
   0.000e+00
   0.000e+00
   0.000e+00
   0.000e+00
   0.000e+00
   0.000e+00
   0.000e+00
   0.000e+00
   0.000e+00
   0.000e+00
   0.000e+00
   0.000e+00
   0.000e+00
   0.000e+00
   0.000e+00
   0.000e+00
   0.000e+00
   0.000e+00
   0.000e+00
   0.000e+00
   0.000e+00
   0.000e+00
   0.000e+00
   0.000e+00
   0.000e+00
   0.000e+00
   0.000e+00
   0.000e+00
   0.000e+00
   0.000e+00
   0.000e+00
   0.000e+00
   0.000e+00
   0.000e+00
   0.000e+00
   0.000e+00
   0.000e+00
   0.000e+00
   0.000e+00
   0.000e+00
   0.000e+00
   0.000e+00
   0.000e+00
   0.000e+00
   0.000e+00
   0.000e+00
   0.000e+00
   0.000e+00
   0.000e+00
   0.000e+00
   0.000e+00
   0.000e+00
   0.000e+00
   0.000e+00
   0.000e+00
   0.000e+00
   0.000e+00
   0.000e+00
   0.000e+00
   0.000e+00
   0.000e+00
   0.000e+00
   0.000e+00
   0.000e+00
   0.000e+00
   0.000e+00
   0.000e+00
   0.000e+00
   0.000e+00
   0.000e+00
   0.000e+00
   0.000e+00
   0.000e+00
   0.000e+00
   0.000e+00
   0.000e+00
   0.000e+00
   0.000e+00
   0.000e+00
   0.000e+00
   0.000e+00
   0.000e+00
   0.000e+00
   0.000e+00
   0.000e+00
   0.000e+00
   0.000e+00
   0.000e+00
   0.000e+00
   0.000e+00
   0.000e+00
   0.000e+00
   0.000e+00
   0.000e+00
   0.000e+00
   0.000e+00
   0.000e+00
   0.000e+00
   0.000e+00
   0.000e+00
   0.000e+00
   0.000e+00
   0.000e+00
   0.000e+00
   0.000e+00
   0.000e+00
   0.000e+00
   0.000e+00
   0.000e+00
   0.000e+00
   0.000e+00
   0.000e+00
   0.000e+00
   0.000e+00
   0.000e+00
   0.000e+00
   0.000e+00
   0.000e+00
   0.000e+00
   0.000e+00
   0.000e+00
   0.000e+00
   0.000e+00
   0.000e+00
   0.000e+00
   0.000e+00
   0.000e+00
   0.000e+00
   0.000e+00
   0.000e+00
   0.000e+00
   0.000e+00
   0.000e+00
   0.000e+00
   0.000e+00
   0.000e+00
   0.000e+00
   0.000e+00
   0.000e+00
   0.000e+00
   0.000e+00
   0.000e+00
   0.000e+00
   0.000e+00
   0.000e+00
   0.000e+00
   0.000e+00
   0.000e+00
   0.000e+00
   0.000e+00
   0.000e+00
   0.000e+00
   0.000e+00
   0.000e+00
   0.000e+00
   0.000e+00
   0.000e+00
   0.000e+00
   0.000e+00
   0.000e+00
   0.000e+00
   0.000e+00
   0.000e+00
   0.000e+00
   0.000e+00
   0.000e+00
   0.000e+00
   0.000e+00
   0.000e+00
   0.000e+00
   0.000e+00
   0.000e+00
   0.000e+00
   0.000e+00
   0.000e+00
   0.000e+00
   0.000e+00
   0.000e+00
   0.000e+00
   0.000e+00
   0.000e+00
   0.000e+00
   0.000e+00
   0.000e+00
   0.000e+00
   0.000e+00
   0.000e+00
   0.000e+00
   0.000e+00
   0.000e+00
   0.000e+00
   0.000e+00
   0.000e+00
   0.000e+00
   0.000e+00
   0.000e+00
   0.000e+00
   0.000e+00
   0.000e+00
   0.000e+00
   0.000e+00
   0.000e+00
   0.000e+00
   0.000e+00
   0.000e+00
   0.000e+00
   0.000e+00
   0.000e+00
   0.000e+00
   0.000e+00
   0.000e+00
   0.000e+00
   0.000e+00
   0.000e+00
   0.000e+00
   0.000e+00
   0.000e+00
   0.000e+00
   0.000e+00
   0.000e+00
   0.000e+00
   0.000e+00
   0.000e+00
   0.000e+00
   0.000e+00
   0.000e+00
   0.000e+00
   0.000e+00
   0.000e+00
   0.000e+00
   0.000e+00
   0.000e+00
   0.000e+00
   0.000e+00
   0.000e+00
   0.000e+00
   0.000e+00
   0.000e+00
   0.000e+00
   0.000e+00
   0.000e+00
   0.000e+00
   0.000e+00
   0.000e+00
   0.000e+00
   0.000e+00
   0.000e+00
   0.000e+00
   0.000e+00
   0.000e+00
   0.000e+00
   0.000e+00
   0.000e+00
   0.000e+00
   0.000e+00
   0.000e+00
   0.000e+00
   0.000e+00
   0.000e+00
   0.000e+00
   0.000e+00
   0.000e+00
   0.000e+00
   0.000e+00
   0.000e+00
   0.000e+00
   0.000e+00
   0.000e+00
   0.000e+00
   0.000e+00
   0.000e+00
   0.000e+00
   0.000e+00
   0.000e+00
   0.000e+00
   0.000e+00
   0.000e+00
   0.000e+00
   0.000e+00
   0.000e+00
   0.000e+00
   0.000e+00
   0.000e+00
   0.000e+00
   0.000e+00
   0.000e+00
   0.000e+00
   0.000e+00
   0.000e+00
   0.000e+00
   0.000e+00
   0.000e+00
   0.000e+00
   0.000e+00
   0.000e+00
   0.000e+00
   0.000e+00
   0.000e+00
   0.000e+00
   0.000e+00
   0.000e+00
   0.000e+00
   0.000e+00
   0.000e+00
   0.000e+00
   0.000e+00
   0.000e+00
   0.000e+00
   0.000e+00
   0.000e+00
   0.000e+00
   0.000e+00
   0.000e+00
   0.000e+00
   0.000e+00
   0.000e+00
   0.000e+00
   0.000e+00
   0.000e+00
   0.000e+00
   0.000e+00
   0.000e+00
   0.000e+00
   0.000e+00
   0.000e+00
   0.000e+00
   0.000e+00
   0.000e+00
   0.000e+00
   0.000e+00
   0.000e+00
   0.000e+00
   0.000e+00
   0.000e+00
   0.000e+00
   0.000e+00
   0.000e+00
   0.000e+00
   0.000e+00
   0.000e+00
   0.000e+00
   0.000e+00
   0.000e+00
   0.000e+00
   0.000e+00
   0.000e+00
   0.000e+00
   0.000e+00
   0.000e+00
   0.000e+00
   0.000e+00
   0.000e+00
   0.000e+00
   0.000e+00
   0.000e+00
   0.000e+00
   0.000e+00
   0.000e+00
   0.000e+00
   0.000e+00
   0.000e+00
   0.000e+00
   0.000e+00
   0.000e+00
   0.000e+00
   0.000e+00
   0.000e+00
   0.000e+00
   0.000e+00
   0.000e+00
   0.000e+00
   0.000e+00
   0.000e+00
   0.000e+00
   0.000e+00
   0.000e+00
   0.000e+00
   0.000e+00
   0.000e+00
   0.000e+00
   0.000e+00
   0.000e+00
   0.000e+00
   0.000e+00
   0.000e+00
   0.000e+00
   0.000e+00
   0.000e+00
   0.000e+00
   0.000e+00
   0.000e+00
   0.000e+00
   0.000e+00
   0.000e+00
   0.000e+00
   0.000e+00
   0.000e+00
   0.000e+00
   0.000e+00
   0.000e+00
   0.000e+00
   0.000e+00
   0.000e+00
   0.000e+00
   0.000e+00
   0.000e+00
   0.000e+00
   0.000e+00
   0.000e+00
   0.000e+00
   0.000e+00
   0.000e+00
   0.000e+00
   0.000e+00
   0.000e+00
   0.000e+00
   0.000e+00
   0.000e+00
   0.000e+00
   0.000e+00
   0.000e+00
   0.000e+00
   0.000e+00
   0.000e+00
   0.000e+00
   0.000e+00
   0.000e+00
   0.000e+00
   0.000e+00
   0.000e+00
   0.000e+00
   0.000e+00
   0.000e+00
   0.000e+00
   0.000e+00
   0.000e+00
   0.000e+00
   0.000e+00
   0.000e+00
   0.000e+00
   0.000e+00
   0.000e+00
   0.000e+00
   0.000e+00
   0.000e+00
   0.000e+00
   0.000e+00
   0.000e+00
   0.000e+00
   0.000e+00
   0.000e+00
   0.000e+00
   0.000e+00
   0.000e+00
   0.000e+00
   0.000e+00
   0.000e+00
   0.000e+00
   0.000e+00
   0.000e+00
   0.000e+00
   0.000e+00
   0.000e+00
   0.000e+00
   0.000e+00
   0.000e+00
   0.000e+00
   0.000e+00
   0.000e+00
   0.000e+00
   0.000e+00
   0.000e+00
   0.000e+00
   0.000e+00
   0.000e+00
   0.000e+00
   0.000e+00
   0.000e+00
   0.000e+00
   0.000e+00
   0.000e+00
   0.000e+00
   0.000e+00
   0.000e+00
   0.000e+00
   0.000e+00
   0.000e+00
   0.000e+00
   0.000e+00
   0.000e+00
   0.000e+00
   0.000e+00
   0.000e+00
   0.000e+00
   0.000e+00
   0.000e+00
   0.000e+00
   0.000e+00
   0.000e+00
   0.000e+00
   0.000e+00
   0.000e+00
   0.000e+00
   0.000e+00
   0.000e+00
   0.000e+00
   0.000e+00
   0.000e+00
   0.000e+00
   0.000e+00
   0.000e+00
   0.000e+00
   0.000e+00
   0.000e+00
   0.000e+00
   0.000e+00
   0.000e+00
   0.000e+00
   0.000e+00
   0.000e+00
   0.000e+00
   0.000e+00
   0.000e+00
   0.000e+00
   0.000e+00
   0.000e+00
   0.000e+00
   0.000e+00
   0.000e+00
   0.000e+00
   0.000e+00
   0.000e+00
   0.000e+00
   0.000e+00
   0.000e+00
   0.000e+00
   0.000e+00
   0.000e+00
   0.000e+00
   0.000e+00
   0.000e+00
   0.000e+00
   0.000e+00
   0.000e+00
   0.000e+00
   0.000e+00
   0.000e+00
   0.000e+00
   0.000e+00
   0.000e+00
   0.000e+00
   0.000e+00
   0.000e+00
   0.000e+00
   0.000e+00
   0.000e+00
   0.000e+00
   0.000e+00
   0.000e+00
   0.000e+00
   0.000e+00
   0.000e+00
   0.000e+00
   0.000e+00
   0.000e+00
   0.000e+00
   0.000e+00
   0.000e+00
   0.000e+00
   0.000e+00
   0.000e+00
   0.000e+00
   0.000e+00
   0.000e+00
   0.000e+00
   0.000e+00
   0.000e+00
   0.000e+00
   0.000e+00
   0.000e+00
   0.000e+00
   0.000e+00
   0.000e+00
   0.000e+00
   0.000e+00
   0.000e+00
   0.000e+00
   0.000e+00
   0.000e+00
   0.000e+00
   0.000e+00
   0.000e+00
   0.000e+00
   0.000e+00
   0.000e+00
   0.000e+00
   0.000e+00
   0.000e+00
   0.000e+00
   0.000e+00
   0.000e+00
   0.000e+00
   0.000e+00
   0.000e+00
   0.000e+00
   0.000e+00
   0.000e+00
   0.000e+00
   0.000e+00
   0.000e+00
   0.000e+00
   0.000e+00
   0.000e+00
   0.000e+00
   0.000e+00
   0.000e+00
   0.000e+00
   0.000e+00
   0.000e+00
   0.000e+00
   0.000e+00
   0.000e+00
   0.000e+00
   0.000e+00
   0.000e+00
   0.000e+00
   0.000e+00
   0.000e+00
   0.000e+00
   0.000e+00
   0.000e+00
   0.000e+00
   0.000e+00
   0.000e+00
   0.000e+00
   0.000e+00
   0.000e+00
   0.000e+00
   0.000e+00
   0.000e+00
   0.000e+00
   0.000e+00
   0.000e+00
   0.000e+00
   0.000e+00
   0.000e+00
   0.000e+00
   0.000e+00
   0.000e+00
   0.000e+00
   0.000e+00
   0.000e+00
   0.000e+00
   0.000e+00
   0.000e+00
   0.000e+00
   0.000e+00
   0.000e+00
   0.000e+00
   0.000e+00
   0.000e+00
   0.000e+00
   0.000e+00
   0.000e+00
   0.000e+00
   0.000e+00
   0.000e+00
   0.000e+00
   0.000e+00
   0.000e+00
   0.000e+00
   0.000e+00
   0.000e+00
   0.000e+00
   0.000e+00
   0.000e+00
   0.000e+00
   0.000e+00
   0.000e+00
   0.000e+00
   0.000e+00
   0.000e+00
   0.000e+00
   0.000e+00
   0.000e+00
   0.000e+00
   0.000e+00
   0.000e+00
   0.000e+00
   0.000e+00
   0.000e+00
   0.000e+00
   0.000e+00
   0.000e+00
   0.000e+00
   0.000e+00
   0.000e+00
   0.000e+00
   0.000e+00
   0.000e+00
   0.000e+00
   0.000e+00
   0.000e+00
   0.000e+00
   0.000e+00
   0.000e+00
   0.000e+00
   0.000e+00
   0.000e+00
   0.000e+00
   0.000e+00
   0.000e+00
   0.000e+00
   0.000e+00
   0.000e+00
   0.000e+00
   0.000e+00
   0.000e+00
   0.000e+00
   0.000e+00
   0.000e+00
   0.000e+00
   0.000e+00
   0.000e+00
   0.000e+00
   0.000e+00
   0.000e+00
   0.000e+00
   0.000e+00
   0.000e+00
   0.000e+00
   0.000e+00
   0.000e+00
   0.000e+00
   0.000e+00
   0.000e+00
   0.000e+00
   0.000e+00
   0.000e+00
   0.000e+00
   0.000e+00
   0.000e+00
   0.000e+00
   0.000e+00
   0.000e+00
   0.000e+00
   0.000e+00
   0.000e+00
   0.000e+00
   0.000e+00
   0.000e+00
   0.000e+00
   0.000e+00
   0.000e+00
   0.000e+00
   0.000e+00
   0.000e+00
   0.000e+00
   0.000e+00
   0.000e+00
   0.000e+00
   0.000e+00
   0.000e+00
   0.000e+00
   0.000e+00
   0.000e+00
   0.000e+00
   0.000e+00
   0.000e+00
   0.000e+00
   0.000e+00
   0.000e+00
   0.000e+00
   0.000e+00
   0.000e+00
   0.000e+00
   0.000e+00
   0.000e+00
   0.000e+00
   0.000e+00
   0.000e+00
   0.000e+00
   0.000e+00
   0.000e+00
   0.000e+00
   0.000e+00
   0.000e+00
   0.000e+00
   0.000e+00
   0.000e+00
   0.000e+00
   0.000e+00
   0.000e+00
   0.000e+00
   0.000e+00
   0.000e+00
   0.000e+00
   0.000e+00
   0.000e+00
   0.000e+00
   0.000e+00
   0.000e+00
   0.000e+00
   0.000e+00
   0.000e+00
   0.000e+00
   0.000e+00
   0.000e+00
   0.000e+00
   0.000e+00
   0.000e+00
   0.000e+00
   0.000e+00
   0.000e+00
   0.000e+00
   0.000e+00
   0.000e+00
   0.000e+00
   0.000e+00
   0.000e+00
   0.000e+00
   0.000e+00
   0.000e+00
   0.000e+00
   0.000e+00
   0.000e+00
   0.000e+00
   0.000e+00
   0.000e+00
   0.000e+00
   0.000e+00
   0.000e+00
   0.000e+00
   0.000e+00
   0.000e+00
   0.000e+00
   0.000e+00
   0.000e+00
   0.000e+00
   0.000e+00
   0.000e+00
   0.000e+00
   0.000e+00
   0.000e+00
   0.000e+00
   0.000e+00
   0.000e+00
   0.000e+00
   0.000e+00
   0.000e+00
   0.000e+00
   0.000e+00
   0.000e+00
   0.000e+00
   0.000e+00
   0.000e+00
   0.000e+00
   0.000e+00
   0.000e+00
   0.000e+00
   0.000e+00
   0.000e+00
   0.000e+00
   0.000e+00
   0.000e+00
   0.000e+00
   0.000e+00
   0.000e+00
   0.000e+00
   0.000e+00
   0.000e+00
   0.000e+00
   0.000e+00
   0.000e+00
   0.000e+00
   0.000e+00
   0.000e+00
   0.000e+00
   0.000e+00
   0.000e+00
   0.000e+00
   0.000e+00
   0.000e+00
   0.000e+00
   0.000e+00
   0.000e+00
   0.000e+00
   0.000e+00
   0.000e+00
   0.000e+00
   0.000e+00
   0.000e+00
   0.000e+00
   0.000e+00
   0.000e+00
   0.000e+00
   0.000e+00
   0.000e+00
   0.000e+00
   0.000e+00
   0.000e+00
   0.000e+00
   0.000e+00
   0.000e+00
   0.000e+00
   0.000e+00
   0.000e+00
   0.000e+00
   0.000e+00
   0.000e+00
   0.000e+00
   0.000e+00
   0.000e+00
   0.000e+00
   0.000e+00
   0.000e+00
   0.000e+00
   0.000e+00
   0.000e+00
   0.000e+00
   0.000e+00
   0.000e+00
   0.000e+00
   0.000e+00
   0.000e+00
   0.000e+00
   0.000e+00
   0.000e+00
   0.000e+00
   0.000e+00
   0.000e+00
   0.000e+00
   0.000e+00
   0.000e+00
   0.000e+00
   0.000e+00
   0.000e+00
   0.000e+00
   0.000e+00
   0.000e+00
   0.000e+00
   0.000e+00
   0.000e+00
   0.000e+00
   0.000e+00
   0.000e+00
   0.000e+00
   0.000e+00
   0.000e+00
   0.000e+00
   0.000e+00
   0.000e+00
   0.000e+00
   0.000e+00
   0.000e+00
   0.000e+00
   0.000e+00
   0.000e+00
   0.000e+00
   0.000e+00
   0.000e+00
   0.000e+00
   0.000e+00
   0.000e+00
   0.000e+00
   0.000e+00
   0.000e+00
   0.000e+00
   0.000e+00
   0.000e+00
   0.000e+00
   0.000e+00
   0.000e+00
   0.000e+00
   0.000e+00
   0.000e+00
   0.000e+00
   0.000e+00
   0.000e+00
   0.000e+00
   0.000e+00
   0.000e+00
   0.000e+00
   0.000e+00
   0.000e+00
   0.000e+00
   0.000e+00
   0.000e+00
   0.000e+00
   0.000e+00
   0.000e+00
   0.000e+00
   0.000e+00
   0.000e+00
   0.000e+00
   0.000e+00
   0.000e+00
   0.000e+00
   0.000e+00
   0.000e+00
   0.000e+00
   0.000e+00
   0.000e+00
   0.000e+00
   0.000e+00
   0.000e+00
   0.000e+00
   0.000e+00
   0.000e+00
   0.000e+00
   0.000e+00
   0.000e+00
   0.000e+00
   0.000e+00
   0.000e+00
   0.000e+00
   0.000e+00
   0.000e+00
   0.000e+00
   0.000e+00
   0.000e+00
   0.000e+00
   0.000e+00
   0.000e+00
   0.000e+00
   0.000e+00
   0.000e+00
   0.000e+00
   0.000e+00
   0.000e+00
   0.000e+00
   0.000e+00
   0.000e+00
   0.000e+00
   0.000e+00
   0.000e+00
   0.000e+00
   0.000e+00
   0.000e+00
   0.000e+00
   0.000e+00
   0.000e+00
   0.000e+00
   0.000e+00
   0.000e+00
   0.000e+00
   0.000e+00
   0.000e+00
   0.000e+00
   0.000e+00
   0.000e+00
   0.000e+00
   0.000e+00
   0.000e+00
   0.000e+00
   0.000e+00
   0.000e+00
   0.000e+00
   0.000e+00
   0.000e+00
   0.000e+00
   0.000e+00
   0.000e+00
   0.000e+00
   0.000e+00
   0.000e+00
   0.000e+00
   0.000e+00
   0.000e+00
   0.000e+00
   0.000e+00
   0.000e+00
   0.000e+00
   0.000e+00
   0.000e+00
   0.000e+00
   0.000e+00
   0.000e+00
   0.000e+00
   0.000e+00
   0.000e+00
   0.000e+00
   0.000e+00
   0.000e+00
   0.000e+00
   0.000e+00
   0.000e+00
   0.000e+00
   0.000e+00
   0.000e+00
   0.000e+00
   0.000e+00
   0.000e+00
   0.000e+00
   0.000e+00
   0.000e+00
   0.000e+00
   0.000e+00
   0.000e+00
   0.000e+00
   0.000e+00
   0.000e+00
   0.000e+00
   0.000e+00
   0.000e+00
   0.000e+00
   0.000e+00
   0.000e+00
   0.000e+00
   0.000e+00
   0.000e+00
   0.000e+00
   0.000e+00
   0.000e+00
   0.000e+00
   0.000e+00
   0.000e+00
   0.000e+00
   0.000e+00
   0.000e+00
   0.000e+00
   0.000e+00
   0.000e+00
   0.000e+00
   0.000e+00
   0.000e+00
   0.000e+00
   0.000e+00
   0.000e+00
   0.000e+00
   0.000e+00
   0.000e+00
   0.000e+00
   0.000e+00
   0.000e+00
   0.000e+00
   0.000e+00
   0.000e+00
   0.000e+00
   0.000e+00
   0.000e+00
   0.000e+00
   0.000e+00
   0.000e+00
   0.000e+00
   0.000e+00
   0.000e+00
   0.000e+00
   0.000e+00
   0.000e+00
   0.000e+00
   0.000e+00
   0.000e+00
   0.000e+00
   0.000e+00
   0.000e+00
   0.000e+00
   0.000e+00
   0.000e+00
   0.000e+00
   0.000e+00
   0.000e+00
   0.000e+00
   0.000e+00
   0.000e+00
   0.000e+00
   0.000e+00
   0.000e+00
   0.000e+00
   0.000e+00
   0.000e+00
   0.000e+00
   0.000e+00
   0.000e+00
   0.000e+00
   0.000e+00
   0.000e+00
   0.000e+00
   0.000e+00
   0.000e+00
   0.000e+00
   0.000e+00
   0.000e+00
   0.000e+00
   0.000e+00
   0.000e+00
   0.000e+00
   0.000e+00
   0.000e+00
   0.000e+00
   0.000e+00
   0.000e+00
   0.000e+00
   0.000e+00
   0.000e+00
   0.000e+00
   0.000e+00
   0.000e+00
   0.000e+00
   0.000e+00
   0.000e+00
   0.000e+00
   0.000e+00
   0.000e+00
   0.000e+00
   0.000e+00
   0.000e+00
   0.000e+00
   0.000e+00
   0.000e+00
   0.000e+00
   0.000e+00
   0.000e+00
   0.000e+00
   0.000e+00
   0.000e+00
   0.000e+00
   0.000e+00
   0.000e+00
   0.000e+00
   0.000e+00
   0.000e+00
   0.000e+00
   0.000e+00
   0.000e+00
   0.000e+00
   0.000e+00
   0.000e+00
   0.000e+00
   0.000e+00
   0.000e+00
   0.000e+00
   0.000e+00
   0.000e+00
   0.000e+00
   0.000e+00
   0.000e+00
   0.000e+00
   0.000e+00
   0.000e+00
   0.000e+00
   0.000e+00
   0.000e+00
   0.000e+00
   0.000e+00
   0.000e+00
   0.000e+00
   0.000e+00
   0.000e+00
   0.000e+00
   0.000e+00
   0.000e+00
   0.000e+00
   0.000e+00
   0.000e+00
   0.000e+00
   0.000e+00
   0.000e+00
   0.000e+00
   0.000e+00
   0.000e+00
   0.000e+00
   0.000e+00
   0.000e+00
   0.000e+00
   0.000e+00
   0.000e+00
   0.000e+00
   0.000e+00
   0.000e+00
   0.000e+00
   0.000e+00
   0.000e+00
   0.000e+00
   0.000e+00
   0.000e+00
   0.000e+00
   0.000e+00
   0.000e+00
   0.000e+00
   0.000e+00
   0.000e+00
   0.000e+00
   0.000e+00
   0.000e+00
   0.000e+00
   0.000e+00
   0.000e+00
   0.000e+00
   0.000e+00
   0.000e+00
   0.000e+00
   0.000e+00
   0.000e+00
   0.000e+00
   0.000e+00
   0.000e+00
   0.000e+00
   0.000e+00
   0.000e+00
   0.000e+00
   0.000e+00
   0.000e+00
   0.000e+00
   0.000e+00
   0.000e+00
   0.000e+00
   0.000e+00
   0.000e+00
   0.000e+00
   0.000e+00
   0.000e+00
   0.000e+00
   0.000e+00
   0.000e+00
   0.000e+00
   0.000e+00
   0.000e+00
   0.000e+00
   0.000e+00
   0.000e+00
   0.000e+00
   0.000e+00
   0.000e+00
   0.000e+00
   0.000e+00
   0.000e+00
   0.000e+00
   0.000e+00
   0.000e+00
   0.000e+00
   0.000e+00
   0.000e+00
   0.000e+00
   0.000e+00
   0.000e+00
   0.000e+00
   0.000e+00
   0.000e+00
   0.000e+00
   0.000e+00
   0.000e+00
   0.000e+00
   0.000e+00
   0.000e+00
   0.000e+00
   0.000e+00
   0.000e+00
   0.000e+00
   0.000e+00
   0.000e+00
   0.000e+00
   0.000e+00
   0.000e+00
   0.000e+00
   0.000e+00
   0.000e+00
   0.000e+00
   0.000e+00
   0.000e+00
   0.000e+00
   0.000e+00
   0.000e+00
   0.000e+00
   0.000e+00
   0.000e+00
   0.000e+00
   0.000e+00
   0.000e+00
   0.000e+00
   0.000e+00
   0.000e+00
   0.000e+00
   0.000e+00
   0.000e+00
   0.000e+00
   0.000e+00
   0.000e+00
   0.000e+00
   0.000e+00
   0.000e+00
   0.000e+00
   0.000e+00
   0.000e+00
   0.000e+00
   0.000e+00
   0.000e+00
   0.000e+00
   0.000e+00
   0.000e+00
   0.000e+00
   0.000e+00
   0.000e+00
   0.000e+00
   0.000e+00
   0.000e+00
   0.000e+00
   0.000e+00
   0.000e+00
   0.000e+00
   0.000e+00
   0.000e+00
   0.000e+00
   0.000e+00
   0.000e+00
   0.000e+00
   0.000e+00
   0.000e+00
   0.000e+00
   0.000e+00
   0.000e+00
   0.000e+00
   0.000e+00
   0.000e+00
   0.000e+00
   0.000e+00
   0.000e+00
   0.000e+00
   0.000e+00
   0.000e+00
   0.000e+00
   0.000e+00
   0.000e+00
   0.000e+00
   0.000e+00
   0.000e+00
   0.000e+00
   0.000e+00
   0.000e+00
   0.000e+00
   0.000e+00
   0.000e+00
   0.000e+00
   0.000e+00
   0.000e+00
   0.000e+00
   0.000e+00
   0.000e+00
   0.000e+00
   0.000e+00
   0.000e+00
   0.000e+00
   0.000e+00
   0.000e+00
   0.000e+00
   0.000e+00
   0.000e+00
   0.000e+00
   0.000e+00
   0.000e+00
   0.000e+00
   0.000e+00
   0.000e+00
   0.000e+00
   0.000e+00
   0.000e+00
   0.000e+00
   0.000e+00
   0.000e+00
   0.000e+00
   0.000e+00
   0.000e+00
   0.000e+00
   0.000e+00
   0.000e+00
   0.000e+00
   0.000e+00
   0.000e+00
   0.000e+00
   0.000e+00
   0.000e+00
   0.000e+00
   0.000e+00
   0.000e+00
   0.000e+00
   0.000e+00
   0.000e+00
   0.000e+00
   0.000e+00
   0.000e+00
   0.000e+00
   0.000e+00
   0.000e+00
   0.000e+00
   0.000e+00
   0.000e+00
   0.000e+00
   0.000e+00
   0.000e+00
   0.000e+00
   0.000e+00
   0.000e+00
   0.000e+00
   0.000e+00
   0.000e+00
   0.000e+00
   0.000e+00
   0.000e+00
   0.000e+00
   0.000e+00
   0.000e+00
   0.000e+00
   0.000e+00
   0.000e+00
   0.000e+00
   0.000e+00
   0.000e+00
   0.000e+00
   0.000e+00
   0.000e+00
   0.000e+00
   0.000e+00
   0.000e+00
   0.000e+00
   0.000e+00
   0.000e+00
   0.000e+00
   0.000e+00
   0.000e+00
   0.000e+00
   0.000e+00
   0.000e+00
   0.000e+00
   0.000e+00
   0.000e+00
   0.000e+00
   0.000e+00
   0.000e+00
   0.000e+00
   0.000e+00
   0.000e+00
   0.000e+00
   0.000e+00
   0.000e+00
   0.000e+00
   0.000e+00
   0.000e+00
   0.000e+00
   0.000e+00
   0.000e+00
   0.000e+00
   0.000e+00
   0.000e+00
   0.000e+00
   0.000e+00
   0.000e+00
   0.000e+00
   0.000e+00
   0.000e+00
   0.000e+00
   0.000e+00
   0.000e+00
   0.000e+00
   0.000e+00
   0.000e+00
   0.000e+00
   0.000e+00
   0.000e+00
   0.000e+00
   0.000e+00
   0.000e+00
   0.000e+00
   0.000e+00
   0.000e+00
   0.000e+00
   0.000e+00
   0.000e+00
   0.000e+00
   0.000e+00
   0.000e+00
   0.000e+00
   0.000e+00
   0.000e+00
   0.000e+00
   0.000e+00
   0.000e+00
   0.000e+00
   0.000e+00
   0.000e+00
   0.000e+00
   0.000e+00
   0.000e+00
   0.000e+00
   0.000e+00
   0.000e+00
   0.000e+00
   0.000e+00
   0.000e+00
   0.000e+00
   0.000e+00
   0.000e+00
   0.000e+00
   0.000e+00
   0.000e+00
   0.000e+00
   0.000e+00
   0.000e+00
   0.000e+00
   0.000e+00
   0.000e+00
   0.000e+00
   0.000e+00
   0.000e+00
   0.000e+00
   0.000e+00
   0.000e+00
   0.000e+00
   0.000e+00
   0.000e+00
   0.000e+00
   0.000e+00
   0.000e+00
   0.000e+00
   0.000e+00
   0.000e+00
   0.000e+00
   0.000e+00
   0.000e+00
   0.000e+00
   0.000e+00
   0.000e+00
   0.000e+00
   0.000e+00
   0.000e+00
   0.000e+00
   0.000e+00
   0.000e+00
   0.000e+00
   0.000e+00
   0.000e+00
   0.000e+00
   0.000e+00
   0.000e+00
   0.000e+00
   0.000e+00
   0.000e+00
   0.000e+00
   0.000e+00
   0.000e+00
   0.000e+00
   0.000e+00
   0.000e+00
   0.000e+00
   0.000e+00
   0.000e+00
   0.000e+00
   0.000e+00
   0.000e+00
   0.000e+00
   0.000e+00
   0.000e+00
   0.000e+00
   0.000e+00
   0.000e+00
   0.000e+00
   0.000e+00
   0.000e+00
   0.000e+00
   0.000e+00
   0.000e+00
   0.000e+00
   0.000e+00
   0.000e+00
   0.000e+00
   0.000e+00
   0.000e+00
   0.000e+00
   0.000e+00
   0.000e+00
   0.000e+00
   0.000e+00
   0.000e+00
   0.000e+00
   0.000e+00
   0.000e+00
   0.000e+00
   0.000e+00
   0.000e+00
   0.000e+00
   0.000e+00
   0.000e+00
   0.000e+00
   0.000e+00
   0.000e+00
   0.000e+00
   0.000e+00
   0.000e+00
   0.000e+00
   0.000e+00
   0.000e+00
   0.000e+00
   0.000e+00
   0.000e+00
   0.000e+00
   0.000e+00
   0.000e+00
   0.000e+00
   0.000e+00
   0.000e+00
   0.000e+00
   0.000e+00
   0.000e+00
   0.000e+00
   0.000e+00
   0.000e+00
   0.000e+00
   0.000e+00
   0.000e+00
   0.000e+00
   0.000e+00
   0.000e+00
   0.000e+00
   0.000e+00
   0.000e+00
   0.000e+00
   0.000e+00
   0.000e+00
   0.000e+00
   0.000e+00
   0.000e+00
   0.000e+00
   0.000e+00
   0.000e+00
   0.000e+00
   0.000e+00
   0.000e+00
   0.000e+00
   0.000e+00
   0.000e+00
   0.000e+00
   0.000e+00
   0.000e+00
   0.000e+00
   0.000e+00
   0.000e+00
   0.000e+00
   0.000e+00
   0.000e+00
   0.000e+00
   0.000e+00
   0.000e+00
   0.000e+00
   0.000e+00
   0.000e+00
   0.000e+00
   0.000e+00
   0.000e+00
   0.000e+00
   0.000e+00
   0.000e+00
   0.000e+00
   0.000e+00
   0.000e+00
   0.000e+00
   0.000e+00
   0.000e+00
   0.000e+00
   0.000e+00
   0.000e+00
   0.000e+00
   0.000e+00
   0.000e+00
   0.000e+00
   0.000e+00
   0.000e+00
   0.000e+00
   0.000e+00
   0.000e+00
   0.000e+00
   0.000e+00
   0.000e+00
   0.000e+00
   0.000e+00
   0.000e+00
   0.000e+00
   0.000e+00
   0.000e+00
   0.000e+00
   0.000e+00
   0.000e+00
   0.000e+00
   0.000e+00
   0.000e+00
   0.000e+00
   0.000e+00
   0.000e+00
   0.000e+00
   0.000e+00
   0.000e+00
   0.000e+00
   0.000e+00
   0.000e+00
   0.000e+00
   0.000e+00
   0.000e+00
   0.000e+00
   0.000e+00
   0.000e+00
   0.000e+00
   0.000e+00
   0.000e+00
   0.000e+00
   0.000e+00
   0.000e+00
   0.000e+00
   0.000e+00
   0.000e+00
   0.000e+00
   0.000e+00
   0.000e+00
   0.000e+00
   0.000e+00
   0.000e+00
   0.000e+00
   0.000e+00
   0.000e+00
   0.000e+00
   0.000e+00
   0.000e+00
   0.000e+00
   0.000e+00
   0.000e+00
   0.000e+00
   0.000e+00
   0.000e+00
   0.000e+00
   0.000e+00
   0.000e+00
   0.000e+00
   0.000e+00
   0.000e+00
   0.000e+00
   0.000e+00
   0.000e+00
   0.000e+00
   0.000e+00
   0.000e+00
   0.000e+00
   0.000e+00
   0.000e+00
   0.000e+00
   0.000e+00
   0.000e+00
   0.000e+00
   0.000e+00
   0.000e+00
   0.000e+00
   0.000e+00
   0.000e+00
   0.000e+00
   0.000e+00
   0.000e+00
   0.000e+00
   0.000e+00
   0.000e+00
   0.000e+00
   0.000e+00
   0.000e+00
   0.000e+00
   0.000e+00

VECTORS gradient float
  -9.507e+00  -9.507e+00   0.000e+00
  -8.271e+00  -8.875e+00   0.000e+00
  -7.157e+00  -8.287e+00   0.000e+00
  -6.160e+00  -7.743e+00   0.000e+00
  -5.268e+00  -7.244e+00   0.000e+00
  -4.474e+00  -6.788e+00   0.000e+00
  -3.768e+00  -6.378e+00   0.000e+00
  -3.141e+00  -6.011e+00   0.000e+00
  -2.585e+00  -5.690e+00   0.000e+00
  -2.090e+00  -5.413e+00   0.000e+00
  -1.647e+00  -5.181e+00   0.000e+00
  -1.247e+00  -4.994e+00   0.000e+00
  -8.803e-01  -4.852e+00   0.000e+00
  -5.386e-01  -4.755e+00   0.000e+00
  -2.123e-01  -4.703e+00   0.000e+00
   1.079e-01  -4.696e+00   0.000e+00
   4.311e-01  -4.734e+00   0.000e+00
   7.666e-01  -4.817e+00   0.000e+00
   1.124e+00  -4.945e+00   0.000e+00
   1.512e+00  -5.118e+00   0.000e+00
   1.939e+00  -5.336e+00   0.000e+00
   2.416e+00  -5.599e+00   0.000e+00
   2.951e+00  -5.906e+00   0.000e+00
   3.554e+00  -6.257e+00   0.000e+00
   4.232e+00  -6.653e+00   0.000e+00
   4.996e+00  -7.093e+00   0.000e+00
   5.854e+00  -7.577e+00   0.000e+00
   6.816e+00  -8.106e+00   0.000e+00
   7.889e+00  -8.678e+00   0.000e+00
   9.085e+00  -9.294e+00   0.000e+00
  -8.875e+00  -8.271e+00   0.000e+00
  -7.681e+00  -7.681e+00   0.000e+00
  -6.611e+00  -7.133e+00   0.000e+00
  -5.655e+00  -6.625e+00   0.000e+00
  -4.807e+00  -6.159e+00   0.000e+00
  -4.055e+00  -5.734e+00   0.000e+00
  -3.392e+00  -5.350e+00   0.000e+00
  -2.809e+00  -5.008e+00   0.000e+00
  -2.296e+00  -4.708e+00   0.000e+00
  -1.844e+00  -4.449e+00   0.000e+00
  -1.444e+00  -4.232e+00   0.000e+00
  -1.087e+00  -4.057e+00   0.000e+00
  -7.647e-01  -3.924e+00   0.000e+00
  -4.666e-01  -3.833e+00   0.000e+00
  -1.840e-01  -3.784e+00   0.000e+00
   9.251e-02  -3.778e+00   0.000e+00
   3.721e-01  -3.814e+00   0.000e+00
   6.641e-01  -3.892e+00   0.000e+00
   9.777e-01  -4.012e+00   0.000e+00
   1.322e+00  -4.174e+00   0.000e+00
   1.707e+00  -4.378e+00   0.000e+00
   2.141e+00  -4.623e+00   0.000e+00
   2.633e+00  -4.910e+00   0.000e+00
   3.192e+00  -5.239e+00   0.000e+00
   3.828e+00  -5.608e+00   0.000e+00
   4.549e+00  -6.019e+00   0.000e+00
   5.365e+00  -6.471e+00   0.000e+00
   6.284e+00  -6.964e+00   0.000e+00
   7.315e+00  -7.498e+00   0.000e+00
   8.467e+00  -8.073e+00   0.000e+00
  -8.287e+00  -7.157e+00   0.000e+00
  -7.133e+00  -6.611e+00   0.000e+00
  -6.102e+00  -6.101e+00   0.000e+00
  -5.186e+00  -5.630e+00   0.000e+00
  -4.377e+00  -5.197e+00   0.000e+00
  -3.665e+00  -4.803e+00   0.000e+00
  -3.042e+00  -4.446e+00   0.000e+00
  -2.499e+00  -4.128e+00   0.000e+00
  -2.026e+00  -3.848e+00   0.000e+00
  -1.614e+00  -3.607e+00   0.000e+00
  -1.255e+00  -3.405e+00   0.000e+00
  -9.387e-01  -3.242e+00   0.000e+00
  -6.566e-01  -3.118e+00   0.000e+00
  -3.993e-01  -3.033e+00   0.000e+00
  -1.574e-01  -2.988e+00   0.000e+00
   7.825e-02  -2.982e+00   0.000e+00
   3.171e-01  -3.016e+00   0.000e+00
   5.683e-01  -3.088e+00   0.000e+00
   8.414e-01  -3.201e+00   0.000e+00
   1.145e+00  -3.352e+00   0.000e+00
   1.490e+00  -3.542e+00   0.000e+00
   1.883e+00  -3.771e+00   0.000e+00
   2.336e+00  -4.038e+00   0.000e+00
   2.855e+00  -4.343e+00   0.000e+00
   3.452e+00  -4.687e+00   0.000e+00
   4.133e+00  -5.068e+00   0.000e+00
   4.909e+00  -5.488e+00   0.000e+00
   5.789e+00  -5.945e+00   0.000e+00
   6.780e+00  -6.441e+00   0.000e+00
   7.893e+00  -6.974e+00   0.000e+00
  -7.743e+00  -6.160e+00   0.000e+00
  -6.625e+00  -5.655e+00   0.000e+00
  -5.631e+00  -5.186e+00   0.000e+00
  -4.751e+00  -4.751e+00   0.000e+00
  -3.979e+00  -4.351e+00   0.000e+00
  -3.304e+00  -3.987e+00   0.000e+00
  -2.718e+00  -3.657e+00   0.000e+00
  -2.211e+00  -3.363e+00   0.000e+00
  -1.775e+00  -3.104e+00   0.000e+00
  -1.401e+00  -2.880e+00   0.000e+00
  -1.079e+00  -2.693e+00   0.000e+00
  -8.003e-01  -2.542e+00   0.000e+00
  -5.560e-01  -2.426e+00   0.000e+00
  -3.366e-01  -2.348e+00   0.000e+00
  -1.327e-01  -2.306e+00   0.000e+00
   6.488e-02  -2.300e+00   0.000e+00
   2.657e-01  -2.332e+00   0.000e+00
   4.791e-01  -2.399e+00   0.000e+00
   7.144e-01  -2.504e+00   0.000e+00
   9.809e-01  -2.644e+00   0.000e+00
   1.288e+00  -2.821e+00   0.000e+00
   1.645e+00  -3.033e+00   0.000e+00
   2.060e+00  -3.280e+00   0.000e+00
   2.543e+00  -3.563e+00   0.000e+00
   3.103e+00  -3.881e+00   0.000e+00
   3.748e+00  -4.233e+00   0.000e+00
   4.488e+00  -4.620e+00   0.000e+00
   5.331e+00  -5.042e+00   0.000e+00
   6.286e+00  -5.499e+00   0.000e+00
   7.362e+00  -5.991e+00   0.000e+00
  -7.243e+00  -5.268e+00   0.000e+00
  -6.158e+00  -4.806e+00   0.000e+00
  -5.197e+00  -4.376e+00   0.000e+00
  -4.352e+00  -3.978e+00   0.000e+00
  -3.613e+00  -3.611e+00   0.000e+00
  -2.971e+00  -3.277e+00   0.000e+00
  -2.418e+00  -2.974e+00   0.000e+00
  -1.945e+00  -2.703e+00   0.000e+00
  -1.543e+00  -2.465e+00   0.000e+00
  -1.203e+00  -2.259e+00   0.000e+00
  -9.159e-01  -2.086e+00   0.000e+00
  -6.722e-01  -1.946e+00   0.000e+00
  -4.628e-01  -1.840e+00   0.000e+00
  -2.785e-01  -1.767e+00   0.000e+00
  -1.099e-01  -1.728e+00   0.000e+00
   5.237e-02  -1.723e+00   0.000e+00
   2.179e-01  -1.752e+00   0.000e+00
   3.961e-01  -1.815e+00   0.000e+00
   5.965e-01  -1.912e+00   0.000e+00
   8.283e-01  -2.042e+00   0.000e+00
   1.101e+00  -2.205e+00   0.000e+00
   1.424e+00  -2.401e+00   0.000e+00
   1.805e+00  -2.629e+00   0.000e+00
   2.255e+00  -2.889e+00   0.000e+00
   2.781e+00  -3.181e+00   0.000e+00
   3.393e+00  -3.504e+00   0.000e+00
   4.100e+00  -3.859e+00   0.000e+00
   4.910e+00  -4.246e+00   0.000e+00
   5.832e+00  -4.664e+00   0.000e+00
   6.875e+00  -5.114e+00   0.000e+00
  -6.787e+00  -4.474e+00   0.000e+00
  -5.733e+00  -4.055e+00   0.000e+00
  -4.802e+00  -3.664e+00   0.000e+00
  -3.987e+00  -3.302e+00   0.000e+00
  -3.278e+00  -2.969e+00   0.000e+00
  -2.666e+00  -2.664e+00   0.000e+00
  -2.144e+00  -2.388e+00   0.000e+00
  -1.702e+00  -2.140e+00   0.000e+00
  -1.330e+00  -1.922e+00   0.000e+00
  -1.022e+00  -1.733e+00   0.000e+00
  -7.660e-01  -1.575e+00   0.000e+00
  -5.541e-01  -1.446e+00   0.000e+00
  -3.768e-01  -1.349e+00   0.000e+00
  -2.248e-01  -1.282e+00   0.000e+00
  -8.883e-02  -1.246e+00   0.000e+00
   4.067e-02  -1.241e+00   0.000e+00
   1.734e-01  -1.268e+00   0.000e+00
   3.192e-01  -1.327e+00   0.000e+00
   4.875e-01  -1.416e+00   0.000e+00
   6.875e-01  -1.536e+00   0.000e+00
   9.286e-01  -1.686e+00   0.000e+00
   1.220e+00  -1.866e+00   0.000e+00
   1.571e+00  -2.075e+00   0.000e+00
   1.991e+00  -2.313e+00   0.000e+00
   2.488e+00  -2.579e+00   0.000e+00
   3.070e+00  -2.873e+00   0.000e+00
   3.746e+00  -3.196e+00   0.000e+00
   4.526e+00  -3.547e+00   0.000e+00
   5.418e+00  -3.926e+00   0.000e+00
   6.430e+00  -4.334e+00   0.000e+00
  -6.376e+00  -3.768e+00   0.000e+00
  -5.349e+00  -3.391e+00   0.000e+00
  -4.445e+00  -3.040e+00   0.000e+00
  -3.656e+00  -2.715e+00   0.000e+00
  -2.974e+00  -2.415e+00   0.000e+00
  -2.390e+00  -2.140e+00   0.000e+00
  -1.895e+00  -1.890e+00   0.000e+00
  -1.479e+00  -1.666e+00   0.000e+00
  -1.136e+00  -1.467e+00   0.000e+00
  -8.555e-01  -1.295e+00   0.000e+00
  -6.289e-01  -1.150e+00   0.000e+00
  -4.460e-01  -1.033e+00   0.000e+00
  -2.976e-01  -9.438e-01   0.000e+00
  -1.752e-01  -8.819e-01   0.000e+00
  -6.935e-02  -8.487e-01   0.000e+00
   2.971e-02  -8.446e-01   0.000e+00
   1.322e-01  -8.699e-01   0.000e+00
   2.481e-01  -9.241e-01   0.000e+00
   3.870e-01  -1.007e+00   0.000e+00
   5.581e-01  -1.116e+00   0.000e+00
   7.704e-01  -1.254e+00   0.000e+00
   1.033e+00  -1.419e+00   0.000e+00
   1.358e+00  -1.610e+00   0.000e+00
   1.751e+00  -1.826e+00   0.000e+00
   2.221e+00  -2.066e+00   0.000e+00
   2.777e+00  -2.331e+00   0.000e+00
   3.427e+00  -2.621e+00   0.000e+00
   4.179e+00  -2.936e+00   0.000e+00
   5.044e+00  -3.277e+00   0.000e+00
   6.030e+00  -3.643e+00   0.000e+00
  -6.009e+00  -3.141e+00   0.000e+00
  -5.006e+00  -2.808e+00   0.000e+00
  -4.126e+00  -2.496e+00   0.000e+00
  -3.361e+00  -2.207e+00   0.000e+00
  -2.703e+00  -1.940e+00   0.000e+00
  -2.142e+00  -1.695e+00   0.000e+00
  -1.670e+00  -1.472e+00   0.000e+00
  -1.278e+00  -1.271e+00   0.000e+00
  -9.588e-01  -1.091e+00   0.000e+00
  -7.039e-01  -9.338e-01   0.000e+00
  -5.053e-01  -8.018e-01   0.000e+00
  -5.053e-01  -8.018e-01   0.000e+00
  -5.053e-01  -8.018e-01   0.000e+00
  -6.763e-01  -1.108e+00   0.000e+00
  -5.053e-01  -8.018e-01   0.000e+00
  -3.482e-01  -6.977e-01   0.000e+00
  -3.482e-01  -6.977e-01   0.000e+00
  -3.482e-01  -6.977e-01   0.000e+00
  -5.322e-01  -1.110e+00   0.000e+00
  -3.482e-01  -6.977e-01   0.000e+00
  -2.247e-01  -6.162e-01   0.000e+00
  -2.247e-01  -6.162e-01   0.000e+00
  -2.247e-01  -6.162e-01   0.000e+00
  -4.212e-01  -1.086e+00   0.000e+00
  -2.247e-01  -6.162e-01   0.000e+00
  -1.290e-01  -5.587e-01   0.000e+00
  -5.118e-02  -5.273e-01   0.000e+00
   1.936e-02  -5.235e-01   0.000e+00
   9.353e-02  -5.475e-01   0.000e+00
   1.820e-01  -5.983e-01   0.000e+00
   2.947e-01  -6.746e-01   0.000e+00
   4.401e-01  -7.747e-01   0.000e+00
   6.246e-01  -8.977e-01   0.000e+00
   6.246e-01  -8.977e-01   0.000e+00
   6.246e-01  -8.977e-01   0.000e+00
   7.710e-01  -1.112e+00   0.000e+00
   6.246e-01  -8.977e-01   0.000e+00
   8.601e-01  -1.049e+00   0.000e+00
   8.601e-01  -1.049e+00   0.000e+00
   8.601e-01  -1.049e+00   0.000e+00
   9.148e-01  -1.109e+00   0.000e+00
   8.601e-01  -1.049e+00   0.000e+00
   1.164e+00  -1.226e+00   0.000e+00
   1.535e+00  -1.419e+00   0.000e+00
   1.983e+00  -1.633e+00   0.000e+00
   2.515e+00  -1.869e+00   0.000e+00
   3.141e+00  -2.126e+00   0.000e+00
   3.870e+00  -2.405e+00   0.000e+00
   4.711e+00  -2.707e+00   0.000e+00
   5.672e+00  -3.031e+00   0.000e+00
  -5.686e+00  -2.585e+00   0.000e+00
  -4.704e+00  -2.294e+00   0.000e+00
  -3.845e+00  -2.023e+00   0.000e+00
  -3.101e+00  -1.770e+00   0.000e+00
  -2.463e+00  -1.537e+00   0.000e+00
  -1.922e+00  -1.322e+00   0.000e+00
  -1.470e+00  -1.125e+00   0.000e+00
  -1.098e+00  -9.465e-01   0.000e+00
  -7.981e-01  -7.852e-01   0.000e+00
  -5.628e-01  -6.406e-01   0.000e+00
  -8.220e-01  -9.633e-01   0.000e+00
  -5.628e-01  -6.406e-01   0.000e+00
  -8.220e-01  -9.633e-01   0.000e+00
  -5.628e-01  -6.406e-01   0.000e+00
  -8.220e-01  -9.633e-01   0.000e+00
  -5.628e-01  -6.406e-01   0.000e+00
  -6.777e-01  -9.644e-01   0.000e+00
  -5.329e-01  -9.656e-01   0.000e+00
  -3.872e-01  -9.668e-01   0.000e+00
  -1.595e-01  -3.517e-01   0.000e+00
  -3.872e-01  -9.668e-01   0.000e+00
  -1.595e-01  -3.517e-01   0.000e+00
  -3.872e-01  -9.668e-01   0.000e+00
  -1.595e-01  -3.517e-01   0.000e+00
  -3.872e-01  -9.668e-01   0.000e+00
  -8.547e-02  -3.012e-01   0.000e+00
  -8.547e-02  -3.012e-01   0.000e+00
  -8.547e-02  -3.012e-01   0.000e+00
  -2.422e-01  -9.667e-01   0.000e+00
  -8.547e-02  -3.012e-01   0.000e+00
  -3.371e-02  -2.712e-01   0.000e+00
   9.369e-03  -2.674e-01   0.000e+00
   5.662e-02  -2.909e-01   0.000e+00
   1.198e-01  -3.398e-01   0.000e+00
   2.090e-01  -4.119e-01   0.000e+00
   4.824e-01  -9.670e-01   0.000e+00
   2.090e-01  -4.119e-01   0.000e+00
   4.824e-01  -9.670e-01   0.000e+00
   2.090e-01  -4.119e-01   0.000e+00
   4.824e-01  -9.670e-01   0.000e+00
   2.090e-01  -4.119e-01   0.000e+00
   6.266e-01  -9.684e-01   0.000e+00
   1.224e+00   4.490e+00   0.000e+00
   6.266e-01  -9.684e-01   0.000e+00
   6.266e-01  -9.684e-01   0.000e+00
   6.266e-01  -9.684e-01   0.000e+00
   7.722e-01  -9.678e-01   0.000e+00
   9.174e-01  -9.671e-01   0.000e+00
   9.174e-01  -9.671e-01   0.000e+00
   6.893e-01  -7.434e-01   0.000e+00
   9.174e-01  -9.671e-01   0.000e+00
   9.174e-01  -9.671e-01   0.000e+00
   9.914e-01  -9.164e-01   0.000e+00
   1.345e+00  -1.085e+00   0.000e+00
   1.773e+00  -1.272e+00   0.000e+00
   2.285e+00  -1.477e+00   0.000e+00
   2.890e+00  -1.701e+00   0.000e+00
   3.598e+00  -1.945e+00   0.000e+00
   4.418e+00  -2.207e+00   0.000e+00
   5.359e+00  -2.489e+00   0.000e+00
  -5.408e+00  -2.089e+00   0.000e+00
  -4.444e+00  -1.842e+00   0.000e+00
  -3.602e+00  -1.611e+00   0.000e+00
  -2.876e+00  -1.396e+00   0.000e+00
  -2.255e+00  -1.196e+00   0.000e+00
  -1.730e+00  -1.011e+00   0.000e+00
  -1.294e+00  -8.415e-01   0.000e+00
  -9.382e-01  -6.856e-01   0.000e+00
  -6.537e-01  -5.430e-01   0.000e+00
  -8.229e-01  -8.179e-01   0.000e+00
  -4.319e-01  -4.128e-01   0.000e+00
  -8.229e-01  -8.179e-01   0.000e+00
  -8.229e-01  -8.179e-01   0.000e+00
  -4.319e-01  -4.128e-01   0.000e+00
  -8.229e-01  -8.179e-01   0.000e+00
  -4.319e-01  -4.128e-01   0.000e+00
  -6.791e-01  -8.193e-01   0.000e+00
  -5.347e-01  -8.215e-01   0.000e+00
  -3.887e-01  -8.239e-01   0.000e+00
  -2.410e-01  -8.254e-01   0.000e+00
  -4.767e-02  -9.235e-02   0.000e+00
  -2.410e-01  -8.254e-01   0.000e+00
  -4.767e-02  -9.235e-02   0.000e+00
  -2.410e-01  -8.254e-01   0.000e+00
  -4.767e-02  -9.235e-02   0.000e+00
  -2.410e-01  -8.254e-01   0.000e+00
  -1.663e-02  -6.826e-02   0.000e+00
  -1.663e-02  -6.826e-02   0.000e+00
  -1.663e-02  -6.826e-02   0.000e+00
  -9.492e-02  -8.239e-01   0.000e+00
  -1.663e-02  -6.826e-02   0.000e+00
  -7.559e-04  -6.471e-02   0.000e+00
   1.954e-02  -8.932e-02   0.000e+00
   5.997e-02  -1.386e-01   0.000e+00
   3.342e-01  -8.262e-01   0.000e+00
   5.997e-02  -1.386e-01   0.000e+00
   3.342e-01  -8.262e-01   0.000e+00
   5.997e-02  -1.386e-01   0.000e+00
   3.342e-01  -8.262e-01   0.000e+00
   5.997e-02  -1.386e-01   0.000e+00
   4.811e-01  -8.259e-01   0.000e+00
   6.275e-01  -8.249e-01   0.000e+00
   7.731e-01  -8.238e-01   0.000e+00
   9.182e-01  -8.228e-01   0.000e+00
   9.182e-01  -8.228e-01   0.000e+00
   4.815e-01  -5.054e-01   0.000e+00
   9.182e-01  -8.228e-01   0.000e+00
   9.182e-01  -8.228e-01   0.000e+00
   8.440e-01  -6.706e-01   0.000e+00
   1.180e+00  -8.135e-01   0.000e+00
   1.591e+00  -9.725e-01   0.000e+00
   2.086e+00  -1.147e+00   0.000e+00
   2.674e+00  -1.338e+00   0.000e+00
   3.364e+00  -1.545e+00   0.000e+00
   4.166e+00  -1.769e+00   0.000e+00
   5.089e+00  -2.009e+00   0.000e+00
  -5.174e+00  -1.646e+00   0.000e+00
  -4.225e+00  -1.442e+00   0.000e+00
  -3.398e+00  -1.251e+00   0.000e+00
  -2.686e+00  -1.074e+00   0.000e+00
  -2.079e+00  -9.081e-01   0.000e+00
  -1.568e+00  -7.546e-01   0.000e+00
  -1.144e+00  -6.123e-01   0.000e+00
  -7.998e-01  -4.800e-01   0.000e+00
  -5.261e-01  -3.566e-01   0.000e+00
  -8.240e-01  -6.714e-01   0.000e+00
  -3.161e-01  -2.413e-01   0.000e+00
  -8.240e-01  -6.714e-01   0.000e+00
  -3.161e-01  -2.413e-01   0.000e+00
  -8.240e-01  -6.714e-01   0.000e+00
  -3.161e-01  -2.413e-01   0.000e+00
  -3.161e-01  -2.413e-01   0.000e+00
  -6.814e-01  -6.732e-01   0.000e+00
  -5.382e-01  -6.770e-01   0.000e+00
  -3.920e-01  -6.819e-01   0.000e+00
  -2.425e-01  -6.854e-01   0.000e+00
  -9.048e-02  -6.863e-01   0.000e+00
  -1.642e-03   9.580e-02   0.000e+00
  -9.048e-02  -6.863e-01   0.000e+00
  -1.642e-03   9.580e-02   0.000e+00
  -9.048e-02  -6.863e-01   0.000e+00
  -1.642e-03   9.580e-02   0.000e+00
  -9.048e-02  -6.863e-01   0.000e+00
  -1.264e-02   9.905e-02   0.000e+00
  -1.264e-02   9.905e-02   0.000e+00
  -1.264e-02   9.905e-02   0.000e+00
   4.921e-02  -6.312e-01   0.000e+00
  -1.264e-02   9.905e-02   0.000e+00
  -2.111e-02   7.027e-02   0.000e+00
   1.862e-01  -6.785e-01   0.000e+00
  -2.111e-02   7.027e-02   0.000e+00
  -2.111e-02   7.027e-02   0.000e+00
  -2.111e-02   7.027e-02   0.000e+00
   3.339e-01  -6.852e-01   0.000e+00
   4.823e-01  -6.837e-01   0.000e+00
   6.290e-01  -6.816e-01   0.000e+00
   7.745e-01  -6.797e-01   0.000e+00
   9.193e-01  -6.782e-01   0.000e+00
   9.193e-01  -6.782e-01   0.000e+00
   3.677e-01  -4.402e-01   0.000e+00
   9.193e-01  -6.782e-01   0.000e+00
   9.193e-01  -6.782e-01   0.000e+00
   7.203e-01  -4.767e-01   0.000e+00
   1.042e+00  -5.948e-01   0.000e+00
   1.439e+00  -7.261e-01   0.000e+00
   1.919e+00  -8.703e-01   0.000e+00
   2.492e+00  -1.028e+00   0.000e+00
   3.168e+00  -1.199e+00   0.000e+00
   3.955e+00  -1.383e+00   0.000e+00
   4.862e+00  -1.580e+00   0.000e+00
  -4.986e+00  -1.246e+00   0.000e+00
  -4.049e+00  -1.086e+00   0.000e+00
  -3.234e+00  -9.357e-01   0.000e+00
  -2.533e+00  -7.955e-01   0.000e+00
  -1.936e+00  -6.649e-01   0.000e+00
  -1.435e+00  -5.432e-01   0.000e+00
  -1.021e+00  -4.294e-01   0.000e+00
  -6.833e-01  -3.220e-01   0.000e+00
  -4.154e-01  -2.186e-01   0.000e+00
  -2.107e-01  -1.166e-01   0.000e+00
  -8.238e-01  -5.238e-01   0.000e+00
  -2.107e-01  -1.166e-01   0.000e+00
  -2.107e-01  -1.166e-01   0.000e+00
  -2.107e-01  -1.166e-01   0.000e+00
  -6.848e-01  -5.245e-01   0.000e+00
  -6.848e-01  -5.245e-01   0.000e+00
  -6.848e-01  -5.245e-01   0.000e+00
  -6.848e-01  -5.245e-01   0.000e+00
  -4.751e-02  -1.840e-02   0.000e+00
  -5.450e-01  -5.312e-01   0.000e+00
  -3.988e-01  -5.416e-01   0.000e+00
  -2.458e-01  -5.485e-01   0.000e+00
  -9.113e-02  -5.514e-01   0.000e+00
   5.718e-02  -5.557e-01   0.000e+00
  -3.209e-02   2.332e-01   0.000e+00
   5.718e-02  -5.557e-01   0.000e+00
  -3.209e-02   2.332e-01   0.000e+00
   5.718e-02  -5.557e-01   0.000e+00
  -3.209e-02   2.332e-01   0.000e+00
   5.718e-02  -5.557e-01   0.000e+00
   1.844e-01  -5.525e-01   0.000e+00
  -7.088e-02   2.204e-01   0.000e+00
   1.844e-01  -5.525e-01   0.000e+00
   1.844e-01  -5.525e-01   0.000e+00
   1.844e-01  -5.525e-01   0.000e+00
   3.365e-01  -5.457e-01   0.000e+00
   4.851e-01  -5.419e-01   0.000e+00
   6.318e-01  -5.382e-01   0.000e+00
   7.767e-01  -5.350e-01   0.000e+00
   9.209e-01  -5.331e-01   0.000e+00
   3.722e-01  -2.431e-01   0.000e+00
   3.722e-01  -2.431e-01   0.000e+00
   9.209e-01  -5.331e-01   0.000e+00
   3.722e-01  -2.431e-01   0.000e+00
   9.209e-01  -5.331e-01   0.000e+00
   3.722e-01  -2.431e-01   0.000e+00
   6.196e-01  -3.264e-01   0.000e+00
   9.307e-01  -4.199e-01   0.000e+00
   1.316e+00  -5.231e-01   0.000e+00
   1.784e+00  -6.364e-01   0.000e+00
   2.346e+00  -7.602e-01   0.000e+00
   3.009e+00  -8.946e-01   0.000e+00
   3.784e+00  -1.040e+00   0.000e+00
   4.679e+00  -1.195e+00   0.000e+00
  -4.843e+00  -8.800e-01   0.000e+00
  -3.915e+00  -7.635e-01   0.000e+00
  -3.108e+00  -6.544e-01   0.000e+00
  -2.416e+00  -5.524e-01   0.000e+00
  -1.827e+00  -4.572e-01   0.000e+00
  -1.333e+00  -3.682e-01   0.000e+00
  -9.244e-01  -2.845e-01   0.000e+00
  -5.908e-01  -2.042e-01   0.000e+00
  -3.226e-01  -1.239e-01   0.000e+00
  -1.128e-01  -3.640e-02   0.000e+00
  -6.902e-01  -3.677e-01   0.000e+00
   3.504e-02   6.875e-02   0.000e+00
  -6.902e-01  -3.677e-01   0.000e+00
   3.504e-02   6.875e-02   0.000e+00
  -6.902e-01  -3.677e-01   0.000e+00
   3.504e-02   6.875e-02   0.000e+00
   3.504e-02   6.875e-02   0.000e+00
  -5.605e-01  -3.800e-01   0.000e+00
  -4.146e-01  -4.053e-01   0.000e+00
  -2.491e-01  -4.171e-01   0.000e+00
  -9.330e-02  -4.153e-01   0.000e+00
   5.261e-02  -4.155e-01   0.000e+00
   1.941e-01  -4.108e-01   0.000e+00
   3.413e-01  -4.054e-01   0.000e+00
   4.898e-01  -4.004e-01   0.000e+00
   6.366e-01  -3.942e-01   0.000e+00
   7.799e-01  -3.891e-01   0.000e+00
   7.799e-01  -3.891e-01   0.000e+00
  -4.117e+00  -3.577e+00   0.000e+00
   7.799e-01  -3.891e-01   0.000e+00
   7.799e-01  -3.891e-01   0.000e+00
   3.025e-01  -1.507e-01   0.000e+00
   5.427e-01  -2.122e-01   0.000e+00
   8.460e-01  -2.797e-01   0.000e+00
   1.223e+00  -3.543e-01   0.000e+00
   1.682e+00  -4.365e-01   0.000e+00
   2.234e+00  -5.266e-01   0.000e+00
   2.888e+00  -6.244e-01   0.000e+00
   3.654e+00  -7.300e-01   0.000e+00
   4.540e+00  -8.432e-01   0.000e+00
  -4.745e+00  -5.384e-01   0.000e+00
  -3.823e+00  -4.660e-01   0.000e+00
  -3.023e+00  -3.981e-01   0.000e+00
  -2.336e+00  -3.346e-01   0.000e+00
  -1.752e+00  -2.755e-01   0.000e+00
  -1.263e+00  -2.202e-01   0.000e+00
  -8.581e-01  -1.682e-01   0.000e+00
  -5.258e-01  -1.182e-01   0.000e+00
  -2.538e-01  -6.753e-02   0.000e+00
  -2.611e-02  -6.943e-03   0.000e+00
   1.674e-01   1.027e-01   0.000e+00
  -7.022e-01  -1.948e-01   0.000e+00
   1.674e-01   1.027e-01   0.000e+00
   1.674e-01   1.027e-01   0.000e+00
   1.674e-01   1.027e-01   0.000e+00
  -6.480e-01  -1.539e-01   0.000e+00
   2.374e-01   2.997e-01   0.000e+00
  -6.480e-01  -1.539e-01   0.000e+00
  -6.480e-01  -1.539e-01   0.000e+00
   2.374e-01   2.997e-01   0.000e+00
  -6.480e-01  -1.539e-01   0.000e+00
   2.374e-01   2.997e-01   0.000e+00
  -4.384e-01  -3.229e-01   0.000e+00
  -2.374e-01  -2.933e-01   0.000e+00
  -8.736e-02  -2.736e-01   0.000e+00
   5.470e-02  -2.682e-01   0.000e+00
   1.979e-01  -2.665e-01   0.000e+00
   3.451e-01  -2.647e-01   0.000e+00
   4.961e-01  -2.606e-01   0.000e+00
   6.463e-01  -2.499e-01   0.000e+00
   7.890e-01  -2.270e-01   0.000e+00
   6.778e-02  -5.418e-02   0.000e+00
   6.778e-02  -5.418e-02   0.000e+00
   6.778e-02  -5.418e-02   0.000e+00
   6.778e-02  -5.418e-02   0.000e+00
   2.551e-01  -8.844e-02   0.000e+00
   4.915e-01  -1.245e-01   0.000e+00
   7.891e-01  -1.646e-01   0.000e+00
   1.159e+00  -2.101e-01   0.000e+00
   1.612e+00  -2.611e-01   0.000e+00
   2.158e+00  -3.174e-01   0.000e+00
   2.806e+00  -3.787e-01   0.000e+00
   3.565e+00  -4.451e-01   0.000e+00
   4.445e+00  -5.161e-01   0.000e+00
  -4.693e+00  -2.123e-01   0.000e+00
  -3.774e+00  -1.840e-01   0.000e+00
  -2.977e+00  -1.575e-01   0.000e+00
  -2.293e+00  -1.328e-01   0.000e+00
  -1.713e+00  -1.100e-01   0.000e+00
  -1.226e+00  -8.895e-02   0.000e+00
  -8.236e-01  -6.972e-02   0.000e+00
  -4.929e-01  -5.250e-02   0.000e+00
  -2.206e-01  -3.823e-02   0.000e+00
   1.702e-02  -2.924e-02   0.000e+00
   2.991e-01  -3.572e-02   0.000e+00
   1.075e+00   7.547e-01   0.000e+00
  -6.680e-01  -1.507e-01   0.000e+00
   1.075e+00   7.547e-01   0.000e+00
   1.075e+00   7.547e-01   0.000e+00
  -6.680e-01  -1.507e-01   0.000e+00
   1.075e+00   7.547e-01   0.000e+00
  -2.204e-01  -2.609e-01   0.000e+00
  -1.921e-01  -1.347e-01   0.000e+00
  -7.760e-02  -1.198e-01   0.000e+00
   5.558e-02  -1.187e-01   0.000e+00
   1.967e-01  -1.220e-01   0.000e+00
   3.450e-01  -1.261e-01   0.000e+00
   5.012e-01  -1.273e-01   0.000e+00
   6.697e-01  -1.211e-01   0.000e+00
   6.697e-01  -1.211e-01   0.000e+00
  -1.257e-01  -3.100e-02   0.000e+00
   6.697e-01  -1.211e-01   0.000e+00
   6.697e-01  -1.211e-01   0.000e+00
   4.801e-02  -3.994e-02   0.000e+00
   4.801e-02  -3.994e-02   0.000e+00
   4.801e-02  -3.994e-02   0.000e+00
   7.978e-01  -1.303e-01   0.000e+00
   4.801e-02  -3.994e-02   0.000e+00
   2.348e-01  -4.469e-02   0.000e+00
   4.675e-01  -5.218e-02   0.000e+00
   7.606e-01  -6.428e-02   0.000e+00
   1.126e+00  -8.061e-02   0.000e+00
   1.575e+00  -1.005e-01   0.000e+00
   2.116e+00  -1.233e-01   0.000e+00
   2.761e+00  -1.483e-01   0.000e+00
   3.517e+00  -1.754e-01   0.000e+00
   4.393e+00  -2.043e-01   0.000e+00
  -4.687e+00   1.077e-01   0.000e+00
  -3.768e+00   9.185e-02   0.000e+00
  -2.972e+00   7.698e-02   0.000e+00
  -2.288e+00   6.282e-02   0.000e+00
  -1.709e+00   4.921e-02   0.000e+00
  -1.223e+00   3.595e-02   0.000e+00
  -8.214e-01   2.258e-02   0.000e+00
  -4.935e-01   7.820e-03   0.000e+00
  -2.283e-01  -1.186e-02   0.000e+00
  -8.314e-01   1.422e-02   0.000e+00
  -2.331e-02  -5.270e-02   0.000e+00
  -8.314e-01   1.422e-02   0.000e+00
  -2.331e-02  -5.270e-02   0.000e+00
  -8.314e-01   1.422e-02   0.000e+00
  -2.331e-02  -5.270e-02   0.000e+00
  -8.314e-01   1.422e-02   0.000e+00
  -7.598e-01  -3.084e-02   0.000e+00
   3.726e-01   2.089e-01   0.000e+00
  -7.598e-01  -3.084e-02   0.000e+00
  -7.598e-01  -3.084e-02   0.000e+00
  -7.598e-01  -3.084e-02   0.000e+00
  -7.243e-01   2.228e-01   0.000e+00
  -2.972e-01   1.558e-01   0.000e+00
  -1.992e-01   6.199e-02   0.000e+00
  -8.103e-02   4.440e-02   0.000e+00
   4.964e-02   3.460e-02   0.000e+00
   1.884e-01   2.329e-02   0.000e+00
   3.370e-01   9.605e-03   0.000e+00
   4.978e-01  -1.078e-03   0.000e+00
   6.616e-01  -5.137e-03   0.000e+00
   8.040e-01   4.455e-04   0.000e+00
   8.040e-01   4.455e-04   0.000e+00
  -7.030e+03   5.824e+04   0.000e+00
   8.040e-01   4.455e-04   0.000e+00
   8.040e-01   4.455e-04   0.000e+00
   9.385e-01   1.494e-02   0.000e+00
   2.392e-01   8.215e-03   0.000e+00
   9.385e-01   1.494e-02   0.000e+00
   2.392e-01   8.215e-03   0.000e+00
   9.385e-01   1.494e-02   0.000e+00
   2.392e-01   8.215e-03   0.000e+00
   9.385e-01   1.494e-02   0.000e+00
   1.074e+00   2.647e-02   0.000e+00
   4.701e-01   1.756e-02   0.000e+00
   4.701e-01   1.756e-02   0.000e+00
   1.074e+00   2.647e-02   0.000e+00
   4.701e-01   1.756e-02   0.000e+00
   1.074e+00   2.647e-02   0.000e+00
   4.701e-01   1.756e-02   0.000e+00
   7.598e-01   3.266e-02   0.000e+00
   7.598e-01   3.266e-02   0.000e+00
   7.598e-01   3.266e-02   0.000e+00
   1.193e+00   5.168e-02   0.000e+00
   7.598e-01   3.266e-02   0.000e+00
   1.122e+00   4.437e-02   0.000e+00
   1.569e+00   5.483e-02   0.000e+00
   2.110e+00   6.502e-02   0.000e+00
   2.753e+00   7.602e-02   0.000e+00
   3.509e+00   8.805e-02   0.000e+00
   4.385e+00   1.013e-01   0.000e+00
  -4.725e+00   4.308e-01   0.000e+00
  -3.805e+00   3.709e-01   0.000e+00
  -3.006e+00   3.147e-01   0.000e+00
  -2.321e+00   2.619e-01   0.000e+00
  -1.740e+00   2.121e-01   0.000e+00
  -1.253e+00   1.649e-01   0.000e+00
  -8.504e-01   1.199e-01   0.000e+00
  -5.233e-01   7.713e-02   0.000e+00
  -1.115e+00   1.833e-01   0.000e+00
  -5.233e-01   7.713e-02   0.000e+00
  -1.115e+00   1.833e-01   0.000e+00
  -5.233e-01   7.713e-02   0.000e+00
  -1.115e+00   1.833e-01   0.000e+00
  -5.233e-01   7.713e-02   0.000e+00
  -9.746e-01   1.809e-01   0.000e+00
  -1.120e+00  -6.953e+00   0.000e+00
  -9.746e-01   1.809e-01   0.000e+00
  -9.746e-01   1.809e-01   0.000e+00
  -9.746e-01   1.809e-01   0.000e+00
  -8.442e-01   1.782e-01   0.000e+00
  -7.300e-01   1.930e-01   0.000e+00
  -5.804e-01   2.508e-01   0.000e+00
  -3.873e-01   2.534e-01   0.000e+00
  -2.303e-01   2.251e-01   0.000e+00
  -9.551e-02   2.047e-01   0.000e+00
   3.677e-02   1.902e-01   0.000e+00
   1.704e-01   1.722e-01   0.000e+00
   3.148e-01   1.429e-01   0.000e+00
   4.879e-01   1.138e-01   0.000e+00
   6.734e-01   1.236e-01   0.000e+00
   8.222e-01   1.529e-01   0.000e+00
   9.520e-01   1.720e-01   0.000e+00
   1.083e+00   1.811e-01   0.000e+00
   1.218e+00   1.855e-01   0.000e+00
   7.805e-01   1.431e-01   0.000e+00
   1.218e+00   1.855e-01   0.000e+00
   7.805e-01   1.431e-01   0.000e+00
   1.218e+00   1.855e-01   0.000e+00
   7.805e-01   1.431e-01   0.000e+00
   1.218e+00   1.855e-01   0.000e+00
   1.146e+00   1.758e-01   0.000e+00
   1.146e+00   1.758e-01   0.000e+00
   1.146e+00   1.758e-01   0.000e+00
   1.355e+00   1.888e-01   0.000e+00
   1.146e+00   1.758e-01   0.000e+00
   1.594e+00   2.140e-01   0.000e+00
   2.137e+00   2.565e-01   0.000e+00
   2.784e+00   3.033e-01   0.000e+00
   3.542e+00   3.545e-01   0.000e+00
   4.420e+00   4.100e-01   0.000e+00
  -4.810e+00   7.662e-01   0.000e+00
  -3.884e+00   6.625e-01   0.000e+00
  -3.080e+00   5.653e-01   0.000e+00
  -2.391e+00   4.741e-01   0.000e+00
  -1.805e+00   3.885e-01   0.000e+00
  -1.315e+00   3.077e-01   0.000e+00
  -9.091e-01   2.310e-01   0.000e+00
  -1.258e+00   3.328e-01   0.000e+00
  -9.091e-01   2.310e-01   0.000e+00
  -9.091e-01   2.310e-01   0.000e+00
  -9.091e-01   2.310e-01   0.000e+00
  -1.115e+00   3.333e-01   0.000e+00
  -9.753e-01   3.338e-01   0.000e+00
  -8.388e-01   3.381e-01   0.000e+00
  -7.020e-01   3.512e-01   0.000e+00
  -5.539e-01   3.711e-01   0.000e+00
  -3.971e-01   3.785e-01   0.000e+00
  -2.485e-01   3.712e-01   0.000e+00
  -1.093e-01   3.594e-01   0.000e+00
   2.341e-02   3.492e-01   0.000e+00
   1.454e-01   3.348e-01   0.000e+00
   2.573e-01   2.865e-01   0.000e+00
   4.535e-01   1.724e-01   0.000e+00
   7.432e-01   2.330e-01   0.000e+00
   8.553e-01   3.229e-01   0.000e+00
   9.617e-01   3.386e-01   0.000e+00
   1.086e+00   3.390e-01   0.000e+00
   1.220e+00   3.380e-01   0.000e+00
   1.358e+00   3.374e-01   0.000e+00
   1.190e+00   3.252e-01   0.000e+00
   1.358e+00   3.374e-01   0.000e+00
   1.190e+00   3.252e-01   0.000e+00
   1.358e+00   3.374e-01   0.000e+00
   1.190e+00   3.252e-01   0.000e+00
   1.358e+00   3.374e-01   0.000e+00
   1.649e+00   3.857e-01   0.000e+00
   2.199e+00   4.595e-01   0.000e+00
   2.851e+00   5.425e-01   0.000e+00
   3.615e+00   6.330e-01   0.000e+00
   4.500e+00   7.308e-01   0.000e+00
  -4.939e+00   1.123e+00   0.000e+00
  -4.005e+00   9.760e-01   0.000e+00
  -3.194e+00   8.381e-01   0.000e+00
  -2.497e+00   7.090e-01   0.000e+00
  -1.906e+00   5.882e-01   0.000e+00
  -1.410e+00   4.746e-01   0.000e+00
  -1.257e+00   4.802e-01   0.000e+00
  -9.997e-01   3.627e-01   0.000e+00
  -1.257e+00   4.802e-01   0.000e+00
  -1.257e+00   4.802e-01   0.000e+00
  -9.997e-01   3.627e-01   0.000e+00
  -1.257e+00   4.802e-01   0.000e+00
  -9.997e-01   3.627e-01   0.000e+00
  -1.114e+00   4.812e-01   0.000e+00
  -9.725e-01   4.833e-01   0.000e+00
  -8.311e-01   4.884e-01   0.000e+00
  -6.879e-01   4.975e-01   0.000e+00
  -5.407e-01   5.090e-01   0.000e+00
  -3.930e-01   5.199e-01   0.000e+00
  -2.590e-01   5.219e-01   0.000e+00
  -2.590e-01   5.219e-01   0.000e+00
  -2.590e-01   5.219e-01   0.000e+00
  -2.590e-01   5.219e-01   0.000e+00
   1.464e+00  -1.641e+00   0.000e+00
  -1.175e-01   5.100e-01   0.000e+00
   2.005e-02   5.096e-01   0.000e+00
   1.387e-01   5.200e-01   0.000e+00
   1.776e-01   5.418e-01   0.000e+00
  -1.598e-02   1.559e-01   0.000e+00
   9.606e-01   5.357e-01   0.000e+00
   8.641e-01   5.543e-01   0.000e+00
   9.531e-01   5.128e-01   0.000e+00
   1.080e+00   4.973e-01   0.000e+00
   1.217e+00   4.898e-01   0.000e+00
   1.357e+00   4.862e-01   0.000e+00
   1.357e+00   4.862e-01   0.000e+00
   1.237e+00   4.727e-01   0.000e+00
   1.357e+00   4.862e-01   0.000e+00
   1.357e+00   4.862e-01   0.000e+00
   1.733e+00   5.728e-01   0.000e+00
   2.296e+00   6.823e-01   0.000e+00
   2.958e+00   8.024e-01   0.000e+00
   3.730e+00   9.327e-01   0.000e+00
   4.623e+00   1.073e+00   0.000e+00
  -5.113e+00   1.511e+00   0.000e+00
  -4.169e+00   1.321e+00   0.000e+00
  -3.347e+00   1.142e+00   0.000e+00
  -2.640e+00   9.759e-01   0.000e+00
  -2.039e+00   8.210e-01   0.000e+00
  -1.535e+00   6.767e-01   0.000e+00
  -1.121e+00   5.412e-01   0.000e+00
  -1.254e+00   6.212e-01   0.000e+00
  -1.121e+00   5.412e-01   0.000e+00
  -1.121e+00   5.412e-01   0.000e+00
  -1.121e+00   5.412e-01   0.000e+00
  -1.113e+00   6.275e-01   0.000e+00
  -7.937e-01   4.169e-01   0.000e+00
  -1.113e+00   6.275e-01   0.000e+00
  -1.113e+00   6.275e-01   0.000e+00
  -7.937e-01   4.169e-01   0.000e+00
  -1.113e+00   6.275e-01   0.000e+00
  -7.937e-01   4.169e-01   0.000e+00
  -9.692e-01   6.301e-01   0.000e+00
  -9.692e-01   6.301e-01   0.000e+00
  -9.692e-01   6.301e-01   0.000e+00
  -9.692e-01   6.301e-01   0.000e+00
  -5.216e-01   3.102e-01   0.000e+00
  -8.250e-01   6.342e-01   0.000e+00
  -8.250e-01   6.342e-01   0.000e+00
  -8.250e-01   6.342e-01   0.000e+00
  -8.250e-01   6.342e-01   0.000e+00
  -3.354e-01   2.032e-01   0.000e+00
  -6.790e-01   6.405e-01   0.000e+00
  -6.790e-01   6.405e-01   0.000e+00
  -6.790e-01   6.405e-01   0.000e+00
  -6.790e-01   6.405e-01   0.000e+00
  -1.785e-01   1.336e-01   0.000e+00
  -5.297e-01   6.492e-01   0.000e+00
  -6.823e-02   5.982e-02   0.000e+00
  -5.297e-01   6.492e-01   0.000e+00
  -6.823e-02   5.982e-02   0.000e+00
  -5.297e-01   6.492e-01   0.000e+00
  -6.823e-02   5.982e-02   0.000e+00
  -6.823e-02   5.982e-02   0.000e+00
  -3.841e-01   6.545e-01   0.000e+00
  -5.442e-03  -9.555e-03   0.000e+00
  -3.841e-01   6.545e-01   0.000e+00
  -5.442e-03  -9.555e-03   0.000e+00
  -3.841e-01   6.545e-01   0.000e+00
  -5.442e-03  -9.555e-03   0.000e+00
  -5.442e-03  -9.555e-03   0.000e+00
  -2.778e-01   6.459e-01   0.000e+00
   2.124e-02  -6.670e-02   0.000e+00
  -2.778e-01   6.459e-01   0.000e+00
  -2.778e-01   6.459e-01   0.000e+00
   2.124e-02  -6.670e-02   0.000e+00
  -2.778e-01   6.459e-01   0.000e+00
   2.124e-02  -6.670e-02   0.000e+00
  -1.179e-01   6.515e-01   0.000e+00
   3.101e-02   6.606e-01   0.000e+00
   1.804e-01   6.883e-01   0.000e+00
   3.690e-01   8.056e-01   0.000e+00
   1.421e+00   1.305e+00   0.000e+00
   6.438e-01  -1.495e+00   0.000e+00
   1.421e+00   1.305e+00   0.000e+00
   6.438e-01  -1.495e+00   0.000e+00
   6.438e-01  -1.495e+00   0.000e+00
   6.438e-01  -1.495e+00   0.000e+00
   1.688e-01   1.038e+00   0.000e+00
  -2.917e-01  -7.578e-02   0.000e+00
   1.688e-01   1.038e+00   0.000e+00
  -2.917e-01  -7.578e-02   0.000e+00
   1.688e-01   1.038e+00   0.000e+00
  -2.917e-01  -7.578e-02   0.000e+00
  -2.917e-01  -7.578e-02   0.000e+00
   7.661e-01   7.277e-01   0.000e+00
   2.372e-01   3.146e-01   0.000e+00
   7.661e-01   7.277e-01   0.000e+00
   7.661e-01   7.277e-01   0.000e+00
   2.372e-01   3.146e-01   0.000e+00
   7.661e-01   7.277e-01   0.000e+00
   2.372e-01   3.146e-01   0.000e+00
   9.214e-01   6.710e-01   0.000e+00
   9.214e-01   6.710e-01   0.000e+00
   9.214e-01   6.710e-01   0.000e+00
   9.214e-01   6.710e-01   0.000e+00
   4.220e-01   3.313e-01   0.000e+00
   1.067e+00   6.483e-01   0.000e+00
   1.067e+00   6.483e-01   0.000e+00
   1.067e+00   6.483e-01   0.000e+00
   1.067e+00   6.483e-01   0.000e+00
   6.798e-01   4.162e-01   0.000e+00
   1.210e+00   6.382e-01   0.000e+00
   1.210e+00   6.382e-01   0.000e+00
   1.210e+00   6.382e-01   0.000e+00
   1.210e+00   6.382e-01   0.000e+00
   9.895e-01   5.195e-01   0.000e+00
   1.354e+00   6.331e-01   0.000e+00
   1.376e+00   6.483e-01   0.000e+00
   1.354e+00   6.331e-01   0.000e+00
   1.376e+00   6.483e-01   0.000e+00
   1.354e+00   6.331e-01   0.000e+00
   1.376e+00   6.483e-01   0.000e+00
   1.376e+00   6.483e-01   0.000e+00
   1.856e+00   7.882e-01   0.000e+00
   2.429e+00   9.347e-01   0.000e+00
   3.102e+00   1.093e+00   0.000e+00
   3.886e+00   1.263e+00   0.000e+00
   4.790e+00   1.446e+00   0.000e+00
  -5.332e+00   1.939e+00   0.000e+00
  -4.374e+00   1.705e+00   0.000e+00
  -3.538e+00   1.487e+00   0.000e+00
  -2.818e+00   1.284e+00   0.000e+00
  -2.204e+00   1.095e+00   0.000e+00
  -1.688e+00   9.216e-01   0.000e+00
  -1.261e+00   7.628e-01   0.000e+00
  -9.146e-01   6.202e-01   0.000e+00
  -6.381e-01   4.933e-01   0.000e+00
  -4.226e-01   3.808e-01   0.000e+00
  -2.601e-01   2.821e-01   0.000e+00
  -1.439e-01   1.970e-01   0.000e+00
  -6.746e-02   1.270e-01   0.000e+00
  -2.615e-01   7.767e-01   0.000e+00
  -2.379e-02   7.530e-02   0.000e+00
  -2.615e-01   7.767e-01   0.000e+00
  -2.615e-01   7.767e-01   0.000e+00
  -2.379e-02   7.530e-02   0.000e+00
  -2.615e-01   7.767e-01   0.000e+00
  -2.379e-02   7.530e-02   0.000e+00
  -1.095e-01   7.883e-01   0.000e+00
   4.349e-02   7.972e-01   0.000e+00
   2.043e-01   8.065e-01   0.000e+00
   3.915e-01   8.159e-01   0.000e+00
   3.915e-01   8.159e-01   0.000e+00
  -1.440e+00  -1.552e+00   0.000e+00
   3.915e-01   8.159e-01   0.000e+00
   3.915e-01   8.159e-01   0.000e+00
   4.083e-02  -6.652e-02   0.000e+00
   4.692e-02   1.975e-01   0.000e+00
   2.759e-01   3.678e-01   0.000e+00
   5.150e-01   4.765e-01   0.000e+00
   7.871e-01   5.936e-01   0.000e+00
   1.118e+00   7.280e-01   0.000e+00
   1.524e+00   8.798e-01   0.000e+00
   2.014e+00   1.047e+00   0.000e+00
   2.599e+00   1.228e+00   0.000e+00
   3.286e+00   1.423e+00   0.000e+00
   4.083e+00   1.633e+00   0.000e+00
   5.001e+00   1.859e+00   0.000e+00
  -5.596e+00   2.416e+00   0.000e+00
  -4.620e+00   2.139e+00   0.000e+00
  -3.768e+00   1.881e+00   0.000e+00
  -3.031e+00   1.642e+00   0.000e+00
  -2.401e+00   1.420e+00   0.000e+00
  -1.868e+00   1.217e+00   0.000e+00
  -1.425e+00   1.031e+00   0.000e+00
  -1.061e+00   8.649e-01   0.000e+00
  -7.672e-01   7.169e-01   0.000e+00
  -5.355e-01   5.871e-01   0.000e+00
  -3.573e-01   4.754e-01   0.000e+00
  -2.245e-01   3.820e-01   0.000e+00
  -1.290e-01   3.085e-01   0.000e+00
  -2.501e-01   9.212e-01   0.000e+00
  -6.178e-02   2.559e-01   0.000e+00
  -2.501e-01   9.212e-01   0.000e+00
  -2.501e-01   9.212e-01   0.000e+00
  -6.178e-02   2.559e-01   0.000e+00
  -2.501e-01   9.212e-01   0.000e+00
  -6.178e-02   2.559e-01   0.000e+00
  -1.021e-01   9.273e-01   0.000e+00
   4.927e-02   9.317e-01   0.000e+00
   2.044e-01   9.322e-01   0.000e+00
   3.622e-01   9.214e-01   0.000e+00
   3.622e-01   9.214e-01   0.000e+00
   2.898e-01   1.913e-01   0.000e+00
   3.622e-01   9.214e-01   0.000e+00
   3.622e-01   9.214e-01   0.000e+00
   1.651e-01   2.490e-01   0.000e+00
   2.417e-01   3.827e-01   0.000e+00
   4.106e-01   5.311e-01   0.000e+00
   6.419e-01   6.725e-01   0.000e+00
   9.269e-01   8.195e-01   0.000e+00
   1.275e+00   9.811e-01   0.000e+00
   1.697e+00   1.160e+00   0.000e+00
   2.204e+00   1.357e+00   0.000e+00
   2.804e+00   1.571e+00   0.000e+00
   3.507e+00   1.803e+00   0.000e+00
   4.322e+00   2.052e+00   0.000e+00
   5.256e+00   2.321e+00   0.000e+00
  -5.904e+00   2.951e+00   0.000e+00
  -4.908e+00   2.632e+00   0.000e+00
  -4.036e+00   2.334e+00   0.000e+00
  -3.279e+00   2.058e+00   0.000e+00
  -2.629e+00   1.803e+00   0.000e+00
  -2.077e+00   1.570e+00   0.000e+00
  -1.613e+00   1.358e+00   0.000e+00
  -1.229e+00   1.168e+00   0.000e+00
  -9.155e-01   9.992e-01   0.000e+00
  -6.639e-01   8.523e-01   0.000e+00
  -4.656e-01   7.271e-01   0.000e+00
  -3.119e-01   6.242e-01   0.000e+00
  -1.941e-01   5.444e-01   0.000e+00
  -2.451e-01   1.065e+00   0.000e+00
  -1.019e-01   4.878e-01   0.000e+00
  -2.451e-01   1.065e+00   0.000e+00
  -1.019e-01   4.878e-01   0.000e+00
  -2.451e-01   1.065e+00   0.000e+00
  -1.019e-01   4.878e-01   0.000e+00
  -1.019e-01   4.878e-01   0.000e+00
  -9.818e-02   1.068e+00   0.000e+00
   5.073e-02   1.070e+00   0.000e+00
   2.009e-01   1.068e+00   0.000e+00
   3.493e-01   1.062e+00   0.000e+00
   3.493e-01   1.062e+00   0.000e+00
   2.009e-01   4.767e-01   0.000e+00
   3.493e-01   1.062e+00   0.000e+00
   3.493e-01   1.062e+00   0.000e+00
   2.594e-01   5.322e-01   0.000e+00
   3.788e-01   6.444e-01   0.000e+00
   5.563e-01   7.834e-01   0.000e+00
   7.940e-01   9.376e-01   0.000e+00
   1.093e+00   1.107e+00   0.000e+00
   1.458e+00   1.293e+00   0.000e+00
   1.899e+00   1.499e+00   0.000e+00
   2.425e+00   1.726e+00   0.000e+00
   3.045e+00   1.973e+00   0.000e+00
   3.767e+00   2.241e+00   0.000e+00
   4.601e+00   2.530e+00   0.000e+00
   5.556e+00   2.841e+00   0.000e+00
  -6.256e+00   3.553e+00   0.000e+00
  -5.237e+00   3.192e+00   0.000e+00
  -4.342e+00   2.854e+00   0.000e+00
  -3.562e+00   2.542e+00   0.000e+00
  -2.889e+00   2.254e+00   0.000e+00
  -2.314e+00   1.990e+00   0.000e+00
  -1.827e+00   1.752e+00   0.000e+00
  -1.419e+00   1.538e+00   0.000e+00
  -1.083e+00   1.349e+00   0.000e+00
  -8.078e-01   1.185e+00   0.000e+00
  -5.858e-01   1.045e+00   0.000e+00
  -4.079e-01   9.320e-01   0.000e+00
  -2.648e-01   8.446e-01   0.000e+00
  -1.463e-01   7.832e-01   0.000e+00
  -2.417e-01   1.208e+00   0.000e+00
  -1.463e-01   7.832e-01   0.000e+00
  -1.463e-01   7.832e-01   0.000e+00
  -1.463e-01   7.832e-01   0.000e+00
  -9.646e-02   1.210e+00   0.000e+00
  -9.646e-02   1.210e+00   0.000e+00
  -9.646e-02   1.210e+00   0.000e+00
  -9.646e-02   1.210e+00   0.000e+00
   1.409e+02  -1.992e+01   0.000e+00
   5.066e-02   1.210e+00   0.000e+00
   1.980e-01   1.209e+00   0.000e+00
   3.443e-01   1.206e+00   0.000e+00
   3.443e-01   1.206e+00   0.000e+00
   2.342e-01   7.801e-01   0.000e+00
   3.443e-01   1.206e+00   0.000e+00
   2.342e-01   7.801e-01   0.000e+00
   3.443e-01   1.206e+00   0.000e+00
   2.342e-01   7.801e-01   0.000e+00
   3.533e-01   8.573e-01   0.000e+00
   5.062e-01   9.700e-01   0.000e+00
   7.067e-01   1.112e+00   0.000e+00
   9.629e-01   1.277e+00   0.000e+00
   1.281e+00   1.465e+00   0.000e+00
   1.667e+00   1.674e+00   0.000e+00
   2.130e+00   1.907e+00   0.000e+00
   2.678e+00   2.163e+00   0.000e+00
   3.319e+00   2.443e+00   0.000e+00
   4.064e+00   2.747e+00   0.000e+00
   4.921e+00   3.075e+00   0.000e+00
   5.899e+00   3.428e+00   0.000e+00
  -6.652e+00   4.232e+00   0.000e+00
  -5.607e+00   3.828e+00   0.000e+00
  -4.686e+00   3.451e+00   0.000e+00
  -3.880e+00   3.102e+00   0.000e+00
  -3.181e+00   2.781e+00   0.000e+00
  -2.579e+00   2.487e+00   0.000e+00
  -2.066e+00   2.222e+00   0.000e+00
  -1.632e+00   1.984e+00   0.000e+00
  -1.269e+00   1.774e+00   0.000e+00
  -9.674e-01   1.593e+00   0.000e+00
  -7.185e-01   1.439e+00   0.000e+00
  -5.132e-01   1.314e+00   0.000e+00
  -3.422e-01   1.219e+00   0.000e+00
  -1.959e-01   1.152e+00   0.000e+00
  -9.576e-02   1.353e+00   0.000e+00
  -6.000e-02   1.112e+00   0.000e+00
  -9.576e-02   1.353e+00   0.000e+00
  -9.576e-02   1.353e+00   0.000e+00
  -6.000e-02   1.112e+00   0.000e+00
  -9.576e-02   1.353e+00   0.000e+00
  -6.000e-02   1.112e+00   0.000e+00
   5.025e-02   1.353e+00   0.000e+00
   1.963e-01   1.352e+00   0.000e+00
   3.401e-01   1.350e+00   0.000e+00
   3.008e-01   1.162e+00   0.000e+00
   3.008e-01   1.162e+00   0.000e+00
   3.008e-01   1.162e+00   0.000e+00
   3.008e-01   1.162e+00   0.000e+00
   4.529e-01   1.248e+00   0.000e+00
   6.375e-01   1.368e+00   0.000e+00
   8.658e-01   1.518e+00   0.000e+00
   1.147e+00   1.696e+00   0.000e+00
   1.489e+00   1.901e+00   0.000e+00
   1.900e+00   2.133e+00   0.000e+00
   2.388e+00   2.392e+00   0.000e+00
   2.961e+00   2.677e+00   0.000e+00
   3.629e+00   2.990e+00   0.000e+00
   4.399e+00   3.330e+00   0.000e+00
   5.282e+00   3.697e+00   0.000e+00
   6.286e+00   4.092e+00   0.000e+00
  -7.092e+00   4.996e+00   0.000e+00
  -6.018e+00   4.549e+00   0.000e+00
  -5.068e+00   4.133e+00   0.000e+00
  -4.233e+00   3.747e+00   0.000e+00
  -3.504e+00   3.393e+00   0.000e+00
  -2.873e+00   3.069e+00   0.000e+00
  -2.330e+00   2.777e+00   0.000e+00
  -1.867e+00   2.515e+00   0.000e+00
  -1.474e+00   2.285e+00   0.000e+00
  -1.143e+00   2.085e+00   0.000e+00
  -8.641e-01   1.917e+00   0.000e+00
  -6.286e-01   1.781e+00   0.000e+00
  -4.272e-01   1.676e+00   0.000e+00
  -2.503e-01   1.604e+00   0.000e+00
  -8.769e-02   1.561e+00   0.000e+00
  -7.915e-02   1.456e+00   0.000e+00
  -8.769e-02   1.561e+00   0.000e+00
  -8.769e-02   1.561e+00   0.000e+00
  -8.769e-02   1.561e+00   0.000e+00
   4.966e-02   1.496e+00   0.000e+00
   6.618e-02   1.544e+00   0.000e+00
   4.966e-02   1.496e+00   0.000e+00
   6.618e-02   1.544e+00   0.000e+00
   4.966e-02   1.496e+00   0.000e+00
   6.618e-02   1.544e+00   0.000e+00
   6.618e-02   1.544e+00   0.000e+00
   1.943e-01   1.494e+00   0.000e+00
   2.128e-01   1.565e+00   0.000e+00
   2.128e-01   1.565e+00   0.000e+00
   2.128e-01   1.565e+00   0.000e+00
   2.128e-01   1.565e+00   0.000e+00
   3.753e-01   1.626e+00   0.000e+00
   5.599e-01   1.720e+00   0.000e+00
   7.770e-01   1.847e+00   0.000e+00
   1.036e+00   2.008e+00   0.000e+00
   1.347e+00   2.201e+00   0.000e+00
   1.718e+00   2.425e+00   0.000e+00
   2.157e+00   2.679e+00   0.000e+00
   2.674e+00   2.963e+00   0.000e+00
   3.276e+00   3.278e+00   0.000e+00
   3.972e+00   3.623e+00   0.000e+00
   4.771e+00   3.998e+00   0.000e+00
   5.683e+00   4.404e+00   0.000e+00
   6.716e+00   4.841e+00   0.000e+00
  -7.577e+00   5.854e+00   0.000e+00
  -6.470e+00   5.364e+00   0.000e+00
  -5.487e+00   4.909e+00   0.000e+00
  -4.620e+00   4.487e+00   0.000e+00
  -3.859e+00   4.099e+00   0.000e+00
  -3.195e+00   3.746e+00   0.000e+00
  -2.620e+00   3.426e+00   0.000e+00
  -2.124e+00   3.140e+00   0.000e+00
  -1.699e+00   2.889e+00   0.000e+00
  -1.335e+00   2.672e+00   0.000e+00
  -1.023e+00   2.489e+00   0.000e+00
  -7.544e-01   2.341e+00   0.000e+00
  -5.197e-01   2.227e+00   0.000e+00
  -3.099e-01   2.148e+00   0.000e+00
  -1.160e-01   2.104e+00   0.000e+00
   7.007e-02   2.093e+00   0.000e+00
   2.568e-01   2.118e+00   0.000e+00
   4.546e-01   2.182e+00   0.000e+00
   6.747e-01   2.282e+00   0.000e+00
   9.267e-01   2.419e+00   0.000e+00
   1.220e+00   2.592e+00   0.000e+00
   1.564e+00   2.800e+00   0.000e+00
   1.967e+00   3.043e+00   0.000e+00
   2.439e+00   3.319e+00   0.000e+00
   2.987e+00   3.629e+00   0.000e+00
   3.621e+00   3.973e+00   0.000e+00
   4.349e+00   4.350e+00   0.000e+00
   5.181e+00   4.761e+00   0.000e+00
   6.125e+00   5.206e+00   0.000e+00
   7.190e+00   5.685e+00   0.000e+00
  -8.105e+00   6.816e+00   0.000e+00
  -6.963e+00   6.283e+00   0.000e+00
  -5.945e+00   5.788e+00   0.000e+00
  -5.042e+00   5.330e+00   0.000e+00
  -4.245e+00   4.909e+00   0.000e+00
  -3.546e+00   4.525e+00   0.000e+00
  -2.935e+00   4.178e+00   0.000e+00
  -2.404e+00   3.869e+00   0.000e+00
  -1.943e+00   3.596e+00   0.000e+00
  -1.543e+00   3.361e+00   0.000e+00
  -1.195e+00   3.164e+00   0.000e+00
  -8.905e-01   3.004e+00   0.000e+00
  -6.198e-01   2.881e+00   0.000e+00
  -3.740e-01   2.796e+00   0.000e+00
  -1.441e-01   2.749e+00   0.000e+00
   7.865e-02   2.739e+00   0.000e+00
   3.034e-01   2.769e+00   0.000e+00
   5.399e-01   2.837e+00   0.000e+00
   7.981e-01   2.945e+00   0.000e+00
   1.088e+00   3.093e+00   0.000e+00
   1.418e+00   3.278e+00   0.000e+00
   1.798e+00   3.502e+00   0.000e+00
   2.237e+00   3.764e+00   0.000e+00
   2.744e+00   4.063e+00   0.000e+00
   3.327e+00   4.399e+00   0.000e+00
   3.997e+00   4.771e+00   0.000e+00
   4.760e+00   5.181e+00   0.000e+00
   5.627e+00   5.627e+00   0.000e+00
   6.606e+00   6.111e+00   0.000e+00
   7.707e+00   6.631e+00   0.000e+00
  -8.678e+00   7.889e+00   0.000e+00
  -7.498e+00   7.314e+00   0.000e+00
  -6.441e+00   6.780e+00   0.000e+00
  -5.499e+00   6.285e+00   0.000e+00
  -4.664e+00   5.831e+00   0.000e+00
  -3.926e+00   5.417e+00   0.000e+00
  -3.276e+00   5.043e+00   0.000e+00
  -2.706e+00   4.709e+00   0.000e+00
  -2.206e+00   4.416e+00   0.000e+00
  -1.767e+00   4.163e+00   0.000e+00
  -1.381e+00   3.950e+00   0.000e+00
  -1.037e+00   3.778e+00   0.000e+00
  -7.273e-01   3.647e+00   0.000e+00
  -4.424e-01   3.556e+00   0.000e+00
  -1.732e-01   3.505e+00   0.000e+00
   8.938e-02   3.496e+00   0.000e+00
   3.545e-01   3.529e+00   0.000e+00
   6.317e-01   3.603e+00   0.000e+00
   9.304e-01   3.719e+00   0.000e+00
   1.260e+00   3.877e+00   0.000e+00
   1.630e+00   4.076e+00   0.000e+00
   2.050e+00   4.316e+00   0.000e+00
   2.528e+00   4.597e+00   0.000e+00
   3.073e+00   4.919e+00   0.000e+00
   3.696e+00   5.281e+00   0.000e+00
   4.403e+00   5.683e+00   0.000e+00
   5.205e+00   6.124e+00   0.000e+00
   6.111e+00   6.606e+00   0.000e+00
   7.128e+00   7.128e+00   0.000e+00
   8.267e+00   7.691e+00   0.000e+00
  -9.294e+00   9.085e+00   0.000e+00
  -8.073e+00   8.467e+00   0.000e+00
  -6.974e+00   7.892e+00   0.000e+00
  -5.991e+00   7.361e+00   0.000e+00
  -5.114e+00   6.874e+00   0.000e+00
  -4.334e+00   6.429e+00   0.000e+00
  -3.643e+00   6.028e+00   0.000e+00
  -3.031e+00   5.670e+00   0.000e+00
  -2.489e+00   5.356e+00   0.000e+00
  -2.008e+00   5.085e+00   0.000e+00
  -1.580e+00   4.857e+00   0.000e+00
  -1.194e+00   4.673e+00   0.000e+00
  -8.422e-01   4.533e+00   0.000e+00
  -5.151e-01   4.436e+00   0.000e+00
  -2.035e-01   4.383e+00   0.000e+00
   1.018e-01   4.373e+00   0.000e+00
   4.099e-01   4.408e+00   0.000e+00
   7.303e-01   4.488e+00   0.000e+00
   1.072e+00   4.612e+00   0.000e+00
   1.445e+00   4.781e+00   0.000e+00
   1.858e+00   4.994e+00   0.000e+00
   2.320e+00   5.251e+00   0.000e+00
   2.840e+00   5.552e+00   0.000e+00
   3.428e+00   5.896e+00   0.000e+00
   4.091e+00   6.284e+00   0.000e+00
   4.841e+00   6.715e+00   0.000e+00
   5.684e+00   7.189e+00   0.000e+00
   6.631e+00   7.707e+00   0.000e+00
   7.691e+00   8.267e+00   0.000e+00
   8.871e+00   8.871e+00   0.000e+00
  -8.871e+00  -8.871e+00   0.000e+00
  -7.690e+00  -8.267e+00   0.000e+00
  -6.631e+00  -7.707e+00   0.000e+00
  -5.684e+00  -7.189e+00   0.000e+00
  -4.841e+00  -6.715e+00   0.000e+00
  -4.092e+00  -6.284e+00   0.000e+00
  -3.428e+00  -5.897e+00   0.000e+00
  -2.841e+00  -5.554e+00   0.000e+00
  -2.320e+00  -5.254e+00   0.000e+00
  -1.858e+00  -4.997e+00   0.000e+00
  -1.445e+00  -4.785e+00   0.000e+00
  -1.072e+00  -4.617e+00   0.000e+00
  -7.300e-01  -4.492e+00   0.000e+00
  -4.093e-01  -4.412e+00   0.000e+00
  -1.010e-01  -4.376e+00   0.000e+00
   2.043e-01  -4.384e+00   0.000e+00
   5.158e-01  -4.436e+00   0.000e+00
   8.426e-01  -4.532e+00   0.000e+00
   1.194e+00  -4.672e+00   0.000e+00
   1.580e+00  -4.856e+00   0.000e+00
   2.008e+00  -5.084e+00   0.000e+00
   2.489e+00  -5.355e+00   0.000e+00
   3.030e+00  -5.670e+00   0.000e+00
   3.643e+00  -6.028e+00   0.000e+00
   4.334e+00  -6.429e+00   0.000e+00
   5.114e+00  -6.874e+00   0.000e+00
   5.991e+00  -7.362e+00   0.000e+00
   6.974e+00  -7.893e+00   0.000e+00
   8.073e+00  -8.467e+00   0.000e+00
   9.294e+00  -9.085e+00   0.000e+00
  -8.267e+00  -7.690e+00   0.000e+00
  -7.128e+00  -7.128e+00   0.000e+00
  -6.111e+00  -6.606e+00   0.000e+00
  -5.205e+00  -6.124e+00   0.000e+00
  -4.404e+00  -5.682e+00   0.000e+00
  -3.696e+00  -5.281e+00   0.000e+00
  -3.075e+00  -4.920e+00   0.000e+00
  -2.529e+00  -4.599e+00   0.000e+00
  -2.051e+00  -4.319e+00   0.000e+00
  -1.631e+00  -4.080e+00   0.000e+00
  -1.261e+00  -3.881e+00   0.000e+00
  -9.305e-01  -3.724e+00   0.000e+00
  -6.308e-01  -3.608e+00   0.000e+00
  -3.528e-01  -3.533e+00   0.000e+00
  -8.719e-02  -3.499e+00   0.000e+00
   1.754e-01  -3.506e+00   0.000e+00
   4.442e-01  -3.555e+00   0.000e+00
   7.285e-01  -3.645e+00   0.000e+00
   1.038e+00  -3.776e+00   0.000e+00
   1.381e+00  -3.948e+00   0.000e+00
   1.767e+00  -4.161e+00   0.000e+00
   2.205e+00  -4.415e+00   0.000e+00
   2.705e+00  -4.709e+00   0.000e+00
   3.276e+00  -5.043e+00   0.000e+00
   3.925e+00  -5.417e+00   0.000e+00
   4.663e+00  -5.831e+00   0.000e+00
   5.499e+00  -6.286e+00   0.000e+00
   6.441e+00  -6.780e+00   0.000e+00
   7.498e+00  -7.315e+00   0.000e+00
   8.678e+00  -7.889e+00   0.000e+00
  -7.706e+00  -6.631e+00   0.000e+00
  -6.606e+00  -6.110e+00   0.000e+00
  -5.627e+00  -5.627e+00   0.000e+00
  -4.760e+00  -5.180e+00   0.000e+00
  -3.997e+00  -4.771e+00   0.000e+00
  -3.329e+00  -4.398e+00   0.000e+00
  -2.746e+00  -4.063e+00   0.000e+00
  -2.240e+00  -3.765e+00   0.000e+00
  -1.801e+00  -3.505e+00   0.000e+00
  -1.420e+00  -3.283e+00   0.000e+00
  -1.089e+00  -3.098e+00   0.000e+00
  -7.984e-01  -2.952e+00   0.000e+00
  -5.385e-01  -2.843e+00   0.000e+00
  -3.003e-01  -2.774e+00   0.000e+00
  -7.454e-02  -2.742e+00   0.000e+00
   1.481e-01  -2.749e+00   0.000e+00
   3.771e-01  -2.795e+00   0.000e+00
   6.217e-01  -2.879e+00   0.000e+00
   8.912e-01  -3.001e+00   0.000e+00
   1.195e+00  -3.161e+00   0.000e+00
   1.542e+00  -3.359e+00   0.000e+00
   1.941e+00  -3.595e+00   0.000e+00
   2.402e+00  -3.868e+00   0.000e+00
   2.934e+00  -4.178e+00   0.000e+00
   3.545e+00  -4.526e+00   0.000e+00
   4.245e+00  -4.910e+00   0.000e+00
   5.042e+00  -5.331e+00   0.000e+00
   5.945e+00  -5.789e+00   0.000e+00
   6.964e+00  -6.284e+00   0.000e+00
   8.106e+00  -6.816e+00   0.000e+00
  -7.189e+00  -5.684e+00   0.000e+00
  -6.124e+00  -5.205e+00   0.000e+00
  -5.180e+00  -4.760e+00   0.000e+00
  -4.349e+00  -4.349e+00   0.000e+00
  -3.622e+00  -3.971e+00   0.000e+00
  -2.989e+00  -3.628e+00   0.000e+00
  -2.442e+00  -3.319e+00   0.000e+00
  -1.971e+00  -3.044e+00   0.000e+00
  -1.568e+00  -2.803e+00   0.000e+00
  -1.224e+00  -2.597e+00   0.000e+00
  -9.298e-01  -2.426e+00   0.000e+00
  -6.757e-01  -2.291e+00   0.000e+00
  -4.527e-01  -2.190e+00   0.000e+00
  -2.515e-01  -2.125e+00   0.000e+00
  -6.286e-02  -2.096e+00   0.000e+00
   1.227e-01  -2.103e+00   0.000e+00
   3.146e-01  -2.145e+00   0.000e+00
   5.222e-01  -2.224e+00   0.000e+00
   7.550e-01  -2.337e+00   0.000e+00
   1.022e+00  -2.486e+00   0.000e+00
   1.333e+00  -2.669e+00   0.000e+00
   1.696e+00  -2.887e+00   0.000e+00
   2.122e+00  -3.140e+00   0.000e+00
   2.618e+00  -3.426e+00   0.000e+00
   3.194e+00  -3.747e+00   0.000e+00
   3.858e+00  -4.101e+00   0.000e+00
   4.620e+00  -4.488e+00   0.000e+00
   5.488e+00  -4.910e+00   0.000e+00
   6.471e+00  -5.365e+00   0.000e+00
   7.578e+00  -5.854e+00   0.000e+00
  -6.714e+00  -4.841e+00   0.000e+00
  -5.682e+00  -4.403e+00   0.000e+00
  -4.771e+00  -3.996e+00   0.000e+00
  -3.972e+00  -3.620e+00   0.000e+00
  -3.277e+00  -3.275e+00   0.000e+00
  -2.676e+00  -2.961e+00   0.000e+00
  -2.161e+00  -2.677e+00   0.000e+00
  -1.724e+00  -2.424e+00   0.000e+00
  -1.354e+00  -2.203e+00   0.000e+00
  -1.043e+00  -2.014e+00   0.000e+00
  -7.825e-01  -1.856e+00   0.000e+00
  -5.622e-01  -1.731e+00   0.000e+00
  -3.733e-01  -1.639e+00   0.000e+00
  -2.063e-01  -1.579e+00   0.000e+00
  -5.211e-02  -1.552e+00   0.000e+00
   9.897e-02  -1.558e+00   0.000e+00
   2.565e-01  -1.598e+00   0.000e+00
   4.300e-01  -1.670e+00   0.000e+00
   6.288e-01  -1.775e+00   0.000e+00
   8.623e-01  -1.912e+00   0.000e+00
   1.140e+00  -2.082e+00   0.000e+00
   1.470e+00  -2.283e+00   0.000e+00
   1.863e+00  -2.515e+00   0.000e+00
   2.327e+00  -2.778e+00   0.000e+00
   2.871e+00  -3.071e+00   0.000e+00
   3.503e+00  -3.395e+00   0.000e+00
   4.233e+00  -3.749e+00   0.000e+00
   5.069e+00  -4.134e+00   0.000e+00
   6.020e+00  -4.550e+00   0.000e+00
   7.094e+00  -4.996e+00   0.000e+00
  -6.283e+00  -4.091e+00   0.000e+00
  -5.280e+00  -3.695e+00   0.000e+00
  -4.398e+00  -3.327e+00   0.000e+00
  -3.628e+00  -2.987e+00   0.000e+00
  -2.962e+00  -2.673e+00   0.000e+00
  -2.391e+00  -2.388e+00   0.000e+00
  -1.905e+00  -2.130e+00   0.000e+00
  -1.497e+00  -1.899e+00   0.000e+00
  -1.157e+00  -1.697e+00   0.000e+00
  -8.772e-01  -1.523e+00   0.000e+00
  -6.472e-01  -1.379e+00   0.000e+00
  -4.578e-01  -1.265e+00   0.000e+00
  -3.000e-01  -1.179e+00   0.000e+00
  -1.646e-01  -1.124e+00   0.000e+00
  -4.225e-02  -1.099e+00   0.000e+00
   7.687e-02  -1.105e+00   0.000e+00
   2.026e-01  -1.142e+00   0.000e+00
   3.446e-01  -1.209e+00   0.000e+00
   5.124e-01  -1.306e+00   0.000e+00
   7.151e-01  -1.432e+00   0.000e+00
   9.621e-01  -1.588e+00   0.000e+00
   1.263e+00  -1.772e+00   0.000e+00
   1.627e+00  -1.985e+00   0.000e+00
   2.062e+00  -2.224e+00   0.000e+00
   2.577e+00  -2.491e+00   0.000e+00
   3.180e+00  -2.784e+00   0.000e+00
   3.881e+00  -3.105e+00   0.000e+00
   4.688e+00  -3.453e+00   0.000e+00
   5.609e+00  -3.829e+00   0.000e+00
   6.654e+00  -4.232e+00   0.000e+00
  -5.895e+00  -3.427e+00   0.000e+00
  -4.918e+00  -3.073e+00   0.000e+00
  -4.062e+00  -2.743e+00   0.000e+00
  -3.318e+00  -2.438e+00   0.000e+00
  -2.678e+00  -2.157e+00   0.000e+00
  -2.132e+00  -1.900e+00   0.000e+00
  -1.673e+00  -1.667e+00   0.000e+00
  -1.291e+00  -1.459e+00   0.000e+00
  -9.778e-01  -1.275e+00   0.000e+00
  -7.255e-01  -1.117e+00   0.000e+00
  -5.238e-01  -9.858e-01   0.000e+00
  -3.622e-01  -8.817e-01   0.000e+00
  -2.324e-01  -8.035e-01   0.000e+00
  -1.260e-01  -7.522e-01   0.000e+00
  -3.315e-02  -7.291e-01   0.000e+00
   5.623e-02  -7.348e-01   0.000e+00
   1.525e-01  -7.690e-01   0.000e+00
   2.657e-01  -8.312e-01   0.000e+00
   4.054e-01  -9.204e-01   0.000e+00
   5.803e-01  -1.036e+00   0.000e+00
   7.992e-01  -1.178e+00   0.000e+00
   1.073e+00  -1.347e+00   0.000e+00
   1.411e+00  -1.540e+00   0.000e+00
   1.822e+00  -1.757e+00   0.000e+00
   2.311e+00  -1.996e+00   0.000e+00
   2.889e+00  -2.259e+00   0.000e+00
   3.564e+00  -2.546e+00   0.000e+00
   4.345e+00  -2.857e+00   0.000e+00
   5.241e+00  -3.193e+00   0.000e+00
   6.259e+00  -3.554e+00   0.000e+00
  -5.550e+00  -2.840e+00   0.000e+00
  -4.596e+00  -2.527e+00   0.000e+00
  -3.763e+00  -2.236e+00   0.000e+00
  -3.042e+00  -1.967e+00   0.000e+00
  -2.424e+00  -1.718e+00   0.000e+00
  -1.901e+00  -1.490e+00   0.000e+00
  -1.464e+00  -1.282e+00   0.000e+00
  -1.104e+00  -1.095e+00   0.000e+00
  -8.141e-01  -9.282e-01   0.000e+00
  -5.863e-01  -7.825e-01   0.000e+00
  -7.718e-01  -1.059e+00   0.000e+00
  -5.863e-01  -7.825e-01   0.000e+00
  -5.863e-01  -7.825e-01   0.000e+00
  -5.863e-01  -7.825e-01   0.000e+00
  -4.135e-01  -6.636e-01   0.000e+00
  -6.289e-01  -1.061e+00   0.000e+00
  -4.135e-01  -6.636e-01   0.000e+00
  -6.289e-01  -1.061e+00   0.000e+00
  -4.135e-01  -6.636e-01   0.000e+00
  -6.289e-01  -1.061e+00   0.000e+00
  -4.135e-01  -6.636e-01   0.000e+00
  -2.754e-01  -5.705e-01   0.000e+00
  -4.839e-01  -1.062e+00   0.000e+00
  -2.754e-01  -5.705e-01   0.000e+00
  -4.839e-01  -1.062e+00   0.000e+00
  -2.754e-01  -5.705e-01   0.000e+00
  -4.839e-01  -1.062e+00   0.000e+00
  -2.754e-01  -5.705e-01   0.000e+00
  -1.699e-01  -5.006e-01   0.000e+00
  -1.699e-01  -5.006e-01   0.000e+00
  -1.699e-01  -5.006e-01   0.000e+00
  -3.501e-01  -1.028e+00   0.000e+00
  -1.699e-01  -5.006e-01   0.000e+00
  -8.967e-02  -4.530e-01   0.000e+00
  -2.466e-02  -4.310e-01   0.000e+00
   3.672e-02  -4.364e-01   0.000e+00
   1.056e-01  -4.690e-01   0.000e+00
   1.926e-01  -5.274e-01   0.000e+00
   3.078e-01  -6.095e-01   0.000e+00
   4.609e-01  -7.116e-01   0.000e+00
   6.752e-01  -1.064e+00   0.000e+00
   4.609e-01  -7.116e-01   0.000e+00
   6.752e-01  -1.064e+00   0.000e+00
   4.609e-01  -7.116e-01   0.000e+00
   6.752e-01  -1.064e+00   0.000e+00
   4.609e-01  -7.116e-01   0.000e+00
   6.521e-01  -8.364e-01   0.000e+00
   8.204e-01  -1.064e+00   0.000e+00
   6.521e-01  -8.364e-01   0.000e+00
   8.204e-01  -1.064e+00   0.000e+00
   6.521e-01  -8.364e-01   0.000e+00
   8.204e-01  -1.064e+00   0.000e+00
   6.521e-01  -8.364e-01   0.000e+00
   8.966e-01  -9.984e-01   0.000e+00
   9.644e-01  -1.061e+00   0.000e+00
   8.966e-01  -9.984e-01   0.000e+00
   9.644e-01  -1.061e+00   0.000e+00
   8.966e-01  -9.984e-01   0.000e+00
   9.644e-01  -1.061e+00   0.000e+00
   8.966e-01  -9.984e-01   0.000e+00
   1.217e+00  -1.175e+00   0.000e+00
   1.607e+00  -1.367e+00   0.000e+00
   2.075e+00  -1.578e+00   0.000e+00
   2.630e+00  -1.810e+00   0.000e+00
   3.282e+00  -2.064e+00   0.000e+00
   4.040e+00  -2.338e+00   0.000e+00
   4.913e+00  -2.634e+00   0.000e+00
   5.909e+00  -2.952e+00   0.000e+00
  -5.249e+00  -2.319e+00   0.000e+00
  -4.315e+00  -2.049e+00   0.000e+00
  -3.501e+00  -1.797e+00   0.000e+00
  -2.800e+00  -1.563e+00   0.000e+00
  -2.201e+00  -1.347e+00   0.000e+00
  -1.697e+00  -1.148e+00   0.000e+00
  -1.278e+00  -9.653e-01   0.000e+00
  -9.367e-01  -7.994e-01   0.000e+00
  -6.648e-01  -6.496e-01   0.000e+00
  -7.742e-01  -9.153e-01   0.000e+00
  -7.742e-01  -9.153e-01   0.000e+00
  -7.742e-01  -9.153e-01   0.000e+00
  -7.742e-01  -9.153e-01   0.000e+00
  -4.502e-01  -5.145e-01   0.000e+00
  -6.300e-01  -9.166e-01   0.000e+00
  -4.849e-01  -9.181e-01   0.000e+00
  -3.388e-01  -9.194e-01   0.000e+00
  -1.153e-01  -2.566e-01   0.000e+00
  -3.388e-01  -9.194e-01   0.000e+00
  -1.153e-01  -2.566e-01   0.000e+00
  -3.388e-01  -9.194e-01   0.000e+00
  -1.153e-01  -2.566e-01   0.000e+00
  -3.388e-01  -9.194e-01   0.000e+00
  -5.516e-02  -2.149e-01   0.000e+00
  -5.516e-02  -2.149e-01   0.000e+00
  -5.516e-02  -2.149e-01   0.000e+00
  -1.919e-01  -9.183e-01   0.000e+00
  -5.516e-02  -2.149e-01   0.000e+00
  -1.629e-02  -1.941e-01   0.000e+00
   1.764e-02  -1.995e-01   0.000e+00
   6.042e-02  -2.318e-01   0.000e+00
   1.241e-01  -2.884e-01   0.000e+00
   3.843e-01  -9.182e-01   0.000e+00
   1.241e-01  -2.884e-01   0.000e+00
   1.241e-01  -2.884e-01   0.000e+00
   1.241e-01  -2.884e-01   0.000e+00
   5.296e-01  -9.210e-01   0.000e+00
   4.323e+00   4.457e+00   0.000e+00
   5.296e-01  -9.210e-01   0.000e+00
   5.296e-01  -9.210e-01   0.000e+00
   5.296e-01  -9.210e-01   0.000e+00
   6.755e-01  -9.203e-01   0.000e+00
   8.209e-01  -9.195e-01   0.000e+00
   9.658e-01  -9.188e-01   0.000e+00
   7.198e-01  -7.254e-01   0.000e+00
   9.658e-01  -9.188e-01   0.000e+00
   7.198e-01  -7.254e-01   0.000e+00
   9.658e-01  -9.188e-01   0.000e+00
   7.198e-01  -7.254e-01   0.000e+00
   9.658e-01  -9.188e-01   0.000e+00
   1.047e+00  -8.792e-01   0.000e+00
   1.419e+00  -1.045e+00   0.000e+00
   1.868e+00  -1.229e+00   0.000e+00
   2.404e+00  -1.430e+00   0.000e+00
   3.036e+00  -1.649e+00   0.000e+00
   3.774e+00  -1.886e+00   0.000e+00
   4.627e+00  -2.142e+00   0.000e+00
   5.603e+00  -2.417e+00   0.000e+00
  -4.992e+00  -1.857e+00   0.000e+00
  -4.074e+00  -1.629e+00   0.000e+00
  -3.277e+00  -1.416e+00   0.000e+00
  -2.592e+00  -1.218e+00   0.000e+00
  -2.009e+00  -1.035e+00   0.000e+00
  -1.520e+00  -8.652e-01   0.000e+00
  -1.116e+00  -7.087e-01   0.000e+00
  -7.887e-01  -5.646e-01   0.000e+00
  -5.304e-01  -4.323e-01   0.000e+00
  -7.753e-01  -7.696e-01   0.000e+00
  -7.753e-01  -7.696e-01   0.000e+00
  -7.753e-01  -7.696e-01   0.000e+00
  -7.753e-01  -7.696e-01   0.000e+00
  -3.302e-01  -3.129e-01   0.000e+00
  -6.319e-01  -7.715e-01   0.000e+00
  -4.872e-01  -7.744e-01   0.000e+00
  -3.404e-01  -7.773e-01   0.000e+00
  -1.915e-01  -7.787e-01   0.000e+00
  -2.730e-02  -2.273e-02   0.000e+00
  -1.915e-01  -7.787e-01   0.000e+00
  -2.730e-02  -2.273e-02   0.000e+00
  -1.915e-01  -7.787e-01   0.000e+00
  -2.730e-02  -2.273e-02   0.000e+00
  -1.915e-01  -7.787e-01   0.000e+00
  -8.020e-03  -5.440e-03   0.000e+00
  -8.020e-03  -5.440e-03   0.000e+00
  -8.020e-03  -5.440e-03   0.000e+00
  -4.187e-02  -7.745e-01   0.000e+00
  -8.020e-03  -5.440e-03   0.000e+00
  -2.192e-03  -1.200e-02   0.000e+00
   1.435e-02  -4.717e-02   0.000e+00
   2.332e-01  -7.843e-01   0.000e+00
   1.435e-02  -4.717e-02   0.000e+00
   1.435e-02  -4.717e-02   0.000e+00
   1.435e-02  -4.717e-02   0.000e+00
   3.831e-01  -7.788e-01   0.000e+00
   5.303e-01  -7.780e-01   0.000e+00
   6.765e-01  -7.767e-01   0.000e+00
   8.219e-01  -7.753e-01   0.000e+00
   9.666e-01  -7.742e-01   0.000e+00
   5.482e-01  -5.173e-01   0.000e+00
   9.666e-01  -7.742e-01   0.000e+00
   5.482e-01  -5.173e-01   0.000e+00
   9.666e-01  -7.742e-01   0.000e+00
   5.482e-01  -5.173e-01   0.000e+00
   9.666e-01  -7.742e-01   0.000e+00
   9.026e-01  -6.434e-01   0.000e+00
   1.258e+00  -7.835e-01   0.000e+00
   1.690e+00  -9.382e-01   0.000e+00
   2.210e+00  -1.108e+00   0.000e+00
   2.826e+00  -1.293e+00   0.000e+00
   3.547e+00  -1.493e+00   0.000e+00
   4.383e+00  -1.709e+00   0.000e+00
   5.342e+00  -1.940e+00   0.000e+00
  -4.778e+00  -1.444e+00   0.000e+00
  -3.874e+00  -1.259e+00   0.000e+00
  -3.091e+00  -1.085e+00   0.000e+00
  -2.419e+00  -9.239e-01   0.000e+00
  -1.848e+00  -7.737e-01   0.000e+00
  -1.371e+00  -6.342e-01   0.000e+00
  -9.780e-01  -5.043e-01   0.000e+00
  -6.606e-01  -3.827e-01   0.000e+00
  -4.115e-01  -2.680e-01   0.000e+00
  -7.767e-01  -6.226e-01   0.000e+00
  -2.216e-01  -1.601e-01   0.000e+00
  -7.767e-01  -6.226e-01   0.000e+00
  -2.216e-01  -1.601e-01   0.000e+00
  -7.767e-01  -6.226e-01   0.000e+00
  -2.216e-01  -1.601e-01   0.000e+00
  -2.216e-01  -1.601e-01   0.000e+00
  -6.352e-01  -6.253e-01   0.000e+00
  -4.917e-01  -6.307e-01   0.000e+00
  -3.439e-01  -6.367e-01   0.000e+00
  -1.926e-01  -6.403e-01   0.000e+00
  -3.827e-02  -6.407e-01   0.000e+00
   5.540e-04   1.524e-01   0.000e+00
  -3.827e-02  -6.407e-01   0.000e+00
   5.540e-04   1.524e-01   0.000e+00
  -3.827e-02  -6.407e-01   0.000e+00
   5.540e-04   1.524e-01   0.000e+00
  -3.827e-02  -6.407e-01   0.000e+00
  -2.549e-02   1.403e-01   0.000e+00
  -2.549e-02   1.403e-01   0.000e+00
  -2.549e-02   1.403e-01   0.000e+00
   9.765e-02  -6.309e-01   0.000e+00
  -2.549e-02   1.403e-01   0.000e+00
   2.323e-01  -6.399e-01   0.000e+00
  -3.739e-02   9.968e-02   0.000e+00
   2.323e-01  -6.399e-01   0.000e+00
   2.323e-01  -6.399e-01   0.000e+00
  -3.739e-02   9.968e-02   0.000e+00
   2.323e-01  -6.399e-01   0.000e+00
  -3.739e-02   9.968e-02   0.000e+00
   3.842e-01  -6.380e-01   0.000e+00
   5.322e-01  -6.356e-01   0.000e+00
   6.784e-01  -6.330e-01   0.000e+00
   8.234e-01  -6.309e-01   0.000e+00
   9.678e-01  -6.292e-01   0.000e+00
   5.095e-01  -3.524e-01   0.000e+00
   5.095e-01  -3.524e-01   0.000e+00
   9.678e-01  -6.292e-01   0.000e+00
   5.095e-01  -3.524e-01   0.000e+00
   9.678e-01  -6.292e-01   0.000e+00
   5.095e-01  -3.524e-01   0.000e+00
   7.824e-01  -4.573e-01   0.000e+00
   1.124e+00  -5.714e-01   0.000e+00
   1.543e+00  -6.973e-01   0.000e+00
   2.049e+00  -8.354e-01   0.000e+00
   2.651e+00  -9.857e-01   0.000e+00
   3.359e+00  -1.149e+00   0.000e+00
   4.181e+00  -1.324e+00   0.000e+00
   5.125e+00  -1.512e+00   0.000e+00
  -4.608e+00  -1.072e+00   0.000e+00
  -3.716e+00  -9.286e-01   0.000e+00
  -2.943e+00  -7.951e-01   0.000e+00
  -2.280e+00  -6.705e-01   0.000e+00
  -1.720e+00  -5.544e-01   0.000e+00
  -1.251e+00  -4.460e-01   0.000e+00
  -8.654e-01  -3.440e-01   0.000e+00
  -5.533e-01  -2.465e-01   0.000e+00
  -3.071e-01  -1.502e-01   0.000e+00
  -7.767e-01  -4.726e-01   0.000e+00
  -1.216e-01  -5.190e-02   0.000e+00
  -7.767e-01  -4.726e-01   0.000e+00
  -1.216e-01  -5.190e-02   0.000e+00
  -7.767e-01  -4.726e-01   0.000e+00
  -1.216e-01  -5.190e-02   0.000e+00
  -1.216e-01  -5.190e-02   0.000e+00
  -6.406e-01  -4.756e-01   0.000e+00
  -6.406e-01  -4.756e-01   0.000e+00
  -6.406e-01  -4.756e-01   0.000e+00
  -6.406e-01  -4.756e-01   0.000e+00
   1.017e-02   2.552e-02   0.000e+00
  -5.012e-01  -4.864e-01   0.000e+00
  -3.511e-01  -4.993e-01   0.000e+00
  -1.954e-01  -5.049e-01   0.000e+00
  -4.076e-02  -5.082e-01   0.000e+00
   9.372e-02  -5.148e-01   0.000e+00
  -2.917e-02   3.110e-01   0.000e+00
   9.372e-02  -5.148e-01   0.000e+00
   9.372e-02  -5.148e-01   0.000e+00
   9.372e-02  -5.148e-01   0.000e+00
   2.384e-01  -5.032e-01   0.000e+00
   3.877e-01  -4.976e-01   0.000e+00
   5.356e-01  -4.932e-01   0.000e+00
   6.815e-01  -4.889e-01   0.000e+00
   8.255e-01  -4.857e-01   0.000e+00
   8.255e-01  -4.857e-01   0.000e+00
  -4.033e+00  -9.244e-01   0.000e+00
   8.255e-01  -4.857e-01   0.000e+00
   8.255e-01  -4.857e-01   0.000e+00
   4.219e-01  -2.321e-01   0.000e+00
   6.863e-01  -3.122e-01   0.000e+00
   1.018e+00  -4.000e-01   0.000e+00
   1.427e+00  -4.968e-01   0.000e+00
   1.922e+00  -6.030e-01   0.000e+00
   2.513e+00  -7.187e-01   0.000e+00
   3.209e+00  -8.441e-01   0.000e+00
   4.020e+00  -9.792e-01   0.000e+00
   4.953e+00  -1.124e+00   0.000e+00
  -4.483e+00  -7.295e-01   0.000e+00
  -3.598e+00  -6.295e-01   0.000e+00
  -2.833e+00  -5.362e-01   0.000e+00
  -2.178e+00  -4.491e-01   0.000e+00
  -1.624e+00  -3.677e-01   0.000e+00
  -1.162e+00  -2.915e-01   0.000e+00
  -7.802e-01  -2.194e-01   0.000e+00
  -4.695e-01  -1.492e-01   0.000e+00
  -2.191e-01  -7.600e-02   0.000e+00
  -2.157e-02   1.196e-02   0.000e+00
  -6.481e-01  -3.127e-01   0.000e+00
   1.107e-01   1.258e-01   0.000e+00
  -6.481e-01  -3.127e-01   0.000e+00
   1.107e-01   1.258e-01   0.000e+00
  -6.481e-01  -3.127e-01   0.000e+00
   1.107e-01   1.258e-01   0.000e+00
   1.107e-01   1.258e-01   0.000e+00
  -5.235e-01  -3.401e-01   0.000e+00
  -3.653e-01  -3.733e-01   0.000e+00
  -1.946e-01  -3.727e-01   0.000e+00
  -4.302e-02  -3.676e-01   0.000e+00
   1.003e-01  -3.654e-01   0.000e+00
   2.445e-01  -3.612e-01   0.000e+00
   3.924e-01  -3.569e-01   0.000e+00
   5.413e-01  -3.512e-01   0.000e+00
   6.867e-01  -3.436e-01   0.000e+00
   8.273e-01  -3.386e-01   0.000e+00
   1.546e-01  -9.247e-02   0.000e+00
   1.546e-01  -9.247e-02   0.000e+00
   8.273e-01  -3.386e-01   0.000e+00
   1.546e-01  -9.247e-02   0.000e+00
   8.273e-01  -3.386e-01   0.000e+00
   1.546e-01  -9.247e-02   0.000e+00
   3.572e-01  -1.445e-01   0.000e+00
   6.156e-01  -1.994e-01   0.000e+00
   9.400e-01  -2.600e-01   0.000e+00
   1.341e+00  -3.272e-01   0.000e+00
   1.828e+00  -4.013e-01   0.000e+00
   2.410e+00  -4.824e-01   0.000e+00
   3.098e+00  -5.703e-01   0.000e+00
   3.901e+00  -6.651e-01   0.000e+00
   4.826e+00  -7.669e-01   0.000e+00
  -4.402e+00  -4.091e-01   0.000e+00
  -3.523e+00  -3.523e-01   0.000e+00
  -2.762e+00  -2.994e-01   0.000e+00
  -2.112e+00  -2.500e-01   0.000e+00
  -1.563e+00  -2.040e-01   0.000e+00
  -1.104e+00  -1.611e-01   0.000e+00
  -7.250e-01  -1.208e-01   0.000e+00
  -4.144e-01  -8.203e-02   0.000e+00
  -1.573e-01  -4.221e-02   0.000e+00
   6.953e-02   1.015e-02   0.000e+00
  -5.472e-01  -3.610e-02   0.000e+00
   3.071e-01   1.713e-01   0.000e+00
   3.071e-01   1.713e-01   0.000e+00
   3.071e-01   1.713e-01   0.000e+00
   3.071e-01   1.713e-01   0.000e+00
  -7.019e-01  -1.491e-01   0.000e+00
  -7.019e-01  -1.491e-01   0.000e+00
   1.630e-01   3.303e-01   0.000e+00
  -7.019e-01  -1.491e-01   0.000e+00
   1.630e-01   3.303e-01   0.000e+00
  -7.019e-01  -1.491e-01   0.000e+00
   1.630e-01   3.303e-01   0.000e+00
  -3.468e-01  -2.900e-01   0.000e+00
  -1.757e-01  -2.375e-01   0.000e+00
  -3.754e-02  -2.215e-01   0.000e+00
   1.025e-01  -2.185e-01   0.000e+00
   2.467e-01  -2.184e-01   0.000e+00
   3.961e-01  -2.178e-01   0.000e+00
   5.499e-01  -2.125e-01   0.000e+00
   7.055e-01  -1.891e-01   0.000e+00
  -4.769e-02  -2.861e-02   0.000e+00
   7.055e-01  -1.891e-01   0.000e+00
  -4.769e-02  -2.861e-02   0.000e+00
   7.055e-01  -1.891e-01   0.000e+00
  -4.769e-02  -2.861e-02   0.000e+00
   7.055e-01  -1.891e-01   0.000e+00
   1.157e-01  -5.598e-02   0.000e+00
   3.175e-01  -8.109e-02   0.000e+00
   5.717e-01  -1.090e-01   0.000e+00
   8.906e-01  -1.415e-01   0.000e+00
   1.285e+00  -1.789e-01   0.000e+00
   1.767e+00  -2.209e-01   0.000e+00
   2.344e+00  -2.674e-01   0.000e+00
   3.026e+00  -3.180e-01   0.000e+00
   3.823e+00  -3.726e-01   0.000e+00
   4.743e+00  -4.312e-01   0.000e+00
  -4.366e+00  -1.011e-01   0.000e+00
  -3.489e+00  -8.750e-02   0.000e+00
  -2.731e+00  -7.509e-02   0.000e+00
  -2.083e+00  -6.372e-02   0.000e+00
  -1.536e+00  -5.341e-02   0.000e+00
  -1.079e+00  -4.423e-02   0.000e+00
  -7.019e-01  -3.649e-02   0.000e+00
  -3.935e-01  -3.122e-02   0.000e+00
  -1.390e-01  -3.221e-02   0.000e+00
   9.250e-02  -5.253e-02   0.000e+00
   4.187e-01  -2.222e-01   0.000e+00
  -6.009e-01  -2.548e-01   0.000e+00
   4.187e-01  -2.222e-01   0.000e+00
  -6.009e-01  -2.548e-01   0.000e+00
   4.187e-01  -2.222e-01   0.000e+00
  -6.009e-01  -2.548e-01   0.000e+00
   4.187e-01  -2.222e-01   0.000e+00
  -8.954e-02   3.749e-01   0.000e+00
  -2.133e-01  -6.925e-02   0.000e+00
  -1.546e-01  -6.538e-02   0.000e+00
  -3.436e-02  -6.560e-02   0.000e+00
   1.004e-01  -6.960e-02   0.000e+00
   2.434e-01  -7.609e-02   0.000e+00
   3.951e-01  -8.246e-02   0.000e+00
   5.560e-01  -8.551e-02   0.000e+00
   7.166e-01  -9.315e-02   0.000e+00
  -6.422e-02  -3.893e-02   0.000e+00
   7.166e-01  -9.315e-02   0.000e+00
  -6.422e-02  -3.893e-02   0.000e+00
   7.166e-01  -9.315e-02   0.000e+00
  -6.422e-02  -3.893e-02   0.000e+00
   7.166e-01  -9.315e-02   0.000e+00
   1.061e-01  -3.406e-02   0.000e+00
   8.374e-01  -9.593e-02   0.000e+00
   1.061e-01  -3.406e-02   0.000e+00
   8.374e-01  -9.593e-02   0.000e+00
   1.061e-01  -3.406e-02   0.000e+00
   8.374e-01  -9.593e-02   0.000e+00
   1.061e-01  -3.406e-02   0.000e+00
   3.060e-01  -3.074e-02   0.000e+00
   5.557e-01  -3.014e-02   0.000e+00
   8.702e-01  -3.416e-02   0.000e+00
   1.261e+00  -4.194e-02   0.000e+00
   1.739e+00  -5.236e-02   0.000e+00
   2.313e+00  -6.454e-02   0.000e+00
   2.993e+00  -7.792e-02   0.000e+00
   3.788e+00  -9.231e-02   0.000e+00
   4.705e+00  -1.078e-01   0.000e+00
  -4.374e+00   2.039e-01   0.000e+00
  -3.497e+00   1.743e-01   0.000e+00
  -2.739e+00   1.462e-01   0.000e+00
  -2.091e+00   1.196e-01   0.000e+00
  -1.543e+00   9.428e-02   0.000e+00
  -1.087e+00   6.993e-02   0.000e+00
  -7.109e-01   4.595e-02   0.000e+00
  -4.065e-01   2.022e-02   0.000e+00
  -9.252e-01   7.505e-02   0.000e+00
  -1.599e-01  -9.133e-03   0.000e+00
  -9.252e-01   7.505e-02   0.000e+00
  -9.252e-01   7.505e-02   0.000e+00
  -1.599e-01  -9.133e-03   0.000e+00
  -9.252e-01   7.505e-02   0.000e+00
  -1.599e-01  -9.133e-03   0.000e+00
  -8.058e-01   5.955e-02   0.000e+00
   1.110e-01   9.958e-02   0.000e+00
  -8.058e-01   5.955e-02   0.000e+00
  -8.058e-01   5.955e-02   0.000e+00
  -8.058e-01   5.955e-02   0.000e+00
  -7.428e-01   7.908e-02   0.000e+00
  -5.239e-01   2.336e-01   0.000e+00
  -2.962e-01   1.560e-01   0.000e+00
  -1.690e-01   1.107e-01   0.000e+00
  -4.221e-02   9.432e-02   0.000e+00
   9.094e-02   8.200e-02   0.000e+00
   2.313e-01   6.654e-02   0.000e+00
   3.848e-01   4.837e-02   0.000e+00
   5.523e-01   3.796e-02   0.000e+00
   7.133e-01   4.225e-02   0.000e+00
   8.538e-01   5.666e-02   0.000e+00
  -5.824e+04   1.594e+04   0.000e+00
   8.538e-01   5.666e-02   0.000e+00
   8.538e-01   5.666e-02   0.000e+00
   8.538e-01   5.666e-02   0.000e+00
   9.877e-01   7.099e-02   0.000e+00
   3.133e-01   3.094e-02   0.000e+00
   9.877e-01   7.099e-02   0.000e+00
   9.877e-01   7.099e-02   0.000e+00
   9.877e-01   7.099e-02   0.000e+00
   5.675e-01   5.261e-02   0.000e+00
   1.123e+00   8.089e-02   0.000e+00
   5.675e-01   5.261e-02   0.000e+00
   1.123e+00   8.089e-02   0.000e+00
   5.675e-01   5.261e-02   0.000e+00
   1.123e+00   8.089e-02   0.000e+00
   5.675e-01   5.261e-02   0.000e+00
   8.776e-01   7.314e-02   0.000e+00
   8.776e-01   7.314e-02   0.000e+00
   8.776e-01   7.314e-02   0.000e+00
   1.255e+00   1.074e-01   0.000e+00
   8.776e-01   7.314e-02   0.000e+00
   1.267e+00   9.348e-02   0.000e+00
   1.743e+00   1.138e-01   0.000e+00
   2.318e+00   1.355e-01   0.000e+00
   2.998e+00   1.591e-01   0.000e+00
   3.794e+00   1.849e-01   0.000e+00
   4.712e+00   2.125e-01   0.000e+00
  -4.427e+00   5.151e-01   0.000e+00
  -3.547e+00   4.424e-01   0.000e+00
  -2.785e+00   3.740e-01   0.000e+00
  -2.135e+00   3.097e-01   0.000e+00
  -1.585e+00   2.490e-01   0.000e+00
  -1.127e+00   1.917e-01   0.000e+00
  -7.495e-01   1.379e-01   0.000e+00
  -1.202e+00   2.408e-01   0.000e+00
  -7.495e-01   1.379e-01   0.000e+00
  -7.495e-01   1.379e-01   0.000e+00
  -7.495e-01   1.379e-01   0.000e+00
  -1.067e+00   2.335e-01   0.000e+00
  -6.574e+00  -7.074e+00   0.000e+00
  -1.067e+00   2.335e-01   0.000e+00
  -1.067e+00   2.335e-01   0.000e+00
  -1.067e+00   2.335e-01   0.000e+00
  -9.305e-01   2.319e-01   0.000e+00
  -8.013e-01   2.352e-01   0.000e+00
  -6.745e-01   2.613e-01   0.000e+00
  -5.087e-01   2.938e-01   0.000e+00
  -3.386e-01   2.874e-01   0.000e+00
  -1.914e-01   2.675e-01   0.000e+00
  -5.611e-02   2.519e-01   0.000e+00
   7.541e-02   2.377e-01   0.000e+00
   2.061e-01   2.141e-01   0.000e+00
   3.551e-01   1.714e-01   0.000e+00
   5.547e-01   1.414e-01   0.000e+00
   7.387e-01   1.792e-01   0.000e+00
   8.737e-01   2.146e-01   0.000e+00
   9.983e-01   2.292e-01   0.000e+00
   1.129e+00   2.346e-01   0.000e+00
   1.265e+00   2.369e-01   0.000e+00
   9.072e-01   1.956e-01   0.000e+00
   1.265e+00   2.369e-01   0.000e+00
   9.072e-01   1.956e-01   0.000e+00
   1.265e+00   2.369e-01   0.000e+00
   9.072e-01   1.956e-01   0.000e+00
   1.265e+00   2.369e-01   0.000e+00
   1.300e+00   2.377e-01   0.000e+00
   1.300e+00   2.377e-01   0.000e+00
   1.300e+00   2.377e-01   0.000e+00
   1.404e+00   2.411e-01   0.000e+00
   1.300e+00   2.377e-01   0.000e+00
   1.780e+00   2.866e-01   0.000e+00
   2.358e+00   3.415e-01   0.000e+00
   3.042e+00   4.021e-01   0.000e+00
   3.841e+00   4.681e-01   0.000e+00
   4.763e+00   5.389e-01   0.000e+00
  -4.525e+00   8.418e-01   0.000e+00
  -3.638e+00   7.263e-01   0.000e+00
  -2.871e+00   6.179e-01   0.000e+00
  -2.215e+00   5.163e-01   0.000e+00
  -1.661e+00   4.208e-01   0.000e+00
  -1.198e+00   3.307e-01   0.000e+00
  -1.209e+00   3.829e-01   0.000e+00
  -8.160e-01   2.479e-01   0.000e+00
  -1.209e+00   3.829e-01   0.000e+00
  -1.209e+00   3.829e-01   0.000e+00
  -8.160e-01   2.479e-01   0.000e+00
  -1.209e+00   3.829e-01   0.000e+00
  -8.160e-01   2.479e-01   0.000e+00
  -1.068e+00   3.829e-01   0.000e+00
  -9.282e-01   3.850e-01   0.000e+00
  -7.901e-01   3.920e-01   0.000e+00
  -6.486e-01   4.059e-01   0.000e+00
  -4.979e-01   4.203e-01   0.000e+00
  -3.476e-01   4.243e-01   0.000e+00
  -2.050e-01   4.170e-01   0.000e+00
  -6.724e-02   4.074e-01   0.000e+00
   6.255e-02   4.011e-01   0.000e+00
   1.725e-01   3.883e-01   0.000e+00
   2.454e-01   2.959e-01   0.000e+00
   5.832e-01   1.369e-01   0.000e+00
   8.309e-01   3.408e-01   0.000e+00
   8.944e-01   3.956e-01   0.000e+00
   1.001e+00   3.952e-01   0.000e+00
   1.129e+00   3.908e-01   0.000e+00
   1.265e+00   3.882e-01   0.000e+00
   1.405e+00   3.868e-01   0.000e+00
   1.355e+00   3.984e-01   0.000e+00
   1.405e+00   3.868e-01   0.000e+00
   1.355e+00   3.984e-01   0.000e+00
   1.405e+00   3.868e-01   0.000e+00
   1.355e+00   3.984e-01   0.000e+00
   1.405e+00   3.868e-01   0.000e+00
   1.847e+00   4.734e-01   0.000e+00
   2.434e+00   5.619e-01   0.000e+00
   3.125e+00   6.600e-01   0.000e+00
   3.931e+00   7.665e-01   0.000e+00
   4.859e+00   8.807e-01   0.000e+00
  -4.666e+00   1.193e+00   0.000e+00
  -3.770e+00   1.035e+00   0.000e+00
  -2.995e+00   8.873e-01   0.000e+00
  -2.331e+00   7.489e-01   0.000e+00
  -1.770e+00   6.195e-01   0.000e+00
  -1.302e+00   4.978e-01   0.000e+00
  -1.209e+00   5.294e-01   0.000e+00
  -1.209e+00   5.294e-01   0.000e+00
  -9.172e-01   3.807e-01   0.000e+00
  -1.209e+00   5.294e-01   0.000e+00
  -9.172e-01   3.807e-01   0.000e+00
  -1.209e+00   5.294e-01   0.000e+00
  -9.172e-01   3.807e-01   0.000e+00
  -1.066e+00   5.307e-01   0.000e+00
  -9.240e-01   5.338e-01   0.000e+00
  -7.811e-01   5.397e-01   0.000e+00
  -6.358e-01   5.487e-01   0.000e+00
  -4.872e-01   5.596e-01   0.000e+00
  -3.423e-01   5.741e-01   0.000e+00
  -3.423e-01   5.741e-01   0.000e+00
  -3.844e-03  -6.546e-01   0.000e+00
  -3.423e-01   5.741e-01   0.000e+00
  -3.423e-01   5.741e-01   0.000e+00
  -2.182e-01   5.654e-01   0.000e+00
  -2.182e-01   5.654e-01   0.000e+00
  -2.182e-01   5.654e-01   0.000e+00
  -2.182e-01   5.654e-01   0.000e+00
   5.634e-01  -2.049e+00   0.000e+00
  -7.063e-02   5.583e-01   0.000e+00
   6.684e-02   5.659e-01   0.000e+00
   1.817e-01   5.998e-01   0.000e+00
   1.700e-01   7.467e-01   0.000e+00
   9.495e-01  -8.114e-01   0.000e+00
   8.956e-01   7.210e-01   0.000e+00
   8.611e-01   6.047e-01   0.000e+00
   9.869e-01   5.605e-01   0.000e+00
   1.122e+00   5.451e-01   0.000e+00
   1.262e+00   5.380e-01   0.000e+00
   1.403e+00   5.344e-01   0.000e+00
   1.445e+00   5.688e-01   0.000e+00
   1.403e+00   5.344e-01   0.000e+00
   1.445e+00   5.688e-01   0.000e+00
   1.403e+00   5.344e-01   0.000e+00
   1.445e+00   5.688e-01   0.000e+00
   1.403e+00   5.344e-01   0.000e+00
   1.948e+00   6.801e-01   0.000e+00
   2.546e+00   8.056e-01   0.000e+00
   3.247e+00   9.420e-01   0.000e+00
   4.062e+00   1.089e+00   0.000e+00
   5.000e+00   1.247e+00   0.000e+00
  -4.851e+00   1.579e+00   0.000e+00
  -3.944e+00   1.379e+00   0.000e+00
  -3.157e+00   1.191e+00   0.000e+00
  -2.482e+00   1.017e+00   0.000e+00
  -1.911e+00   8.548e-01   0.000e+00
  -1.434e+00   7.046e-01   0.000e+00
  -1.203e+00   6.717e-01   0.000e+00
  -1.044e+00   5.655e-01   0.000e+00
  -1.044e+00   5.655e-01   0.000e+00
  -1.044e+00   5.655e-01   0.000e+00
  -1.044e+00   5.655e-01   0.000e+00
  -1.064e+00   6.767e-01   0.000e+00
  -1.064e+00   6.767e-01   0.000e+00
  -7.318e-01   4.442e-01   0.000e+00
  -1.064e+00   6.767e-01   0.000e+00
  -7.318e-01   4.442e-01   0.000e+00
  -1.064e+00   6.767e-01   0.000e+00
  -7.318e-01   4.442e-01   0.000e+00
  -9.200e-01   6.794e-01   0.000e+00
  -9.200e-01   6.794e-01   0.000e+00
  -4.844e-01   3.270e-01   0.000e+00
  -9.200e-01   6.794e-01   0.000e+00
  -4.844e-01   3.270e-01   0.000e+00
  -9.200e-01   6.794e-01   0.000e+00
  -4.844e-01   3.270e-01   0.000e+00
  -7.747e-01   6.837e-01   0.000e+00
  -7.747e-01   6.837e-01   0.000e+00
  -2.960e-01   2.378e-01   0.000e+00
  -7.747e-01   6.837e-01   0.000e+00
  -2.960e-01   2.378e-01   0.000e+00
  -7.747e-01   6.837e-01   0.000e+00
  -2.960e-01   2.378e-01   0.000e+00
  -6.273e-01   6.897e-01   0.000e+00
  -1.592e-01   1.539e-01   0.000e+00
  -1.592e-01   1.539e-01   0.000e+00
  -6.273e-01   6.897e-01   0.000e+00
  -1.592e-01   1.539e-01   0.000e+00
  -6.273e-01   6.897e-01   0.000e+00
  -1.592e-01   1.539e-01   0.000e+00
  -4.763e-01   6.973e-01   0.000e+00
  -6.585e-02   7.651e-02   0.000e+00
  -6.585e-02   7.651e-02   0.000e+00
  -6.585e-02   7.651e-02   0.000e+00
  -6.585e-02   7.651e-02   0.000e+00
  -1.274e-02   1.162e-02   0.000e+00
  -2.193e-01   6.897e-01   0.000e+00
  -2.193e-01   6.897e-01   0.000e+00
  -2.193e-01   6.897e-01   0.000e+00
  -2.193e-01   6.897e-01   0.000e+00
   1.141e-02  -3.678e-02   0.000e+00
  -6.492e-02   6.996e-01   0.000e+00
   8.680e-02   7.120e-01   0.000e+00
   2.545e-01   7.379e-01   0.000e+00
   5.301e-01   7.590e-01   0.000e+00
  -1.195e+00   4.347e-01   0.000e+00
   5.301e-01   7.590e-01   0.000e+00
  -1.195e+00   4.347e-01   0.000e+00
   5.301e-01   7.590e-01   0.000e+00
  -1.195e+00   4.347e-01   0.000e+00
   5.301e-01   7.590e-01   0.000e+00
   1.506e-01  -3.324e+00   0.000e+00
  -3.844e-01  -2.752e-01   0.000e+00
  -3.844e-01  -2.752e-01   0.000e+00
  -3.844e-01  -2.752e-01   0.000e+00
  -3.844e-01  -2.752e-01   0.000e+00
   5.671e-01   1.231e+00   0.000e+00
  -1.548e-02   2.619e-01   0.000e+00
  -1.548e-02   2.619e-01   0.000e+00
  -1.548e-02   2.619e-01   0.000e+00
  -1.548e-02   2.619e-01   0.000e+00
   7.918e-01   7.501e-01   0.000e+00
   7.918e-01   7.501e-01   0.000e+00
   3.009e-01   3.277e-01   0.000e+00
   7.918e-01   7.501e-01   0.000e+00
   3.009e-01   3.277e-01   0.000e+00
   7.918e-01   7.501e-01   0.000e+00
   3.009e-01   3.277e-01   0.000e+00
   9.621e-01   7.098e-01   0.000e+00
   9.621e-01   7.098e-01   0.000e+00
   5.288e-01   4.039e-01   0.000e+00
   9.621e-01   7.098e-01   0.000e+00
   5.288e-01   4.039e-01   0.000e+00
   9.621e-01   7.098e-01   0.000e+00
   5.288e-01   4.039e-01   0.000e+00
   1.111e+00   6.929e-01   0.000e+00
   1.111e+00   6.929e-01   0.000e+00
   8.069e-01   5.053e-01   0.000e+00
   1.111e+00   6.929e-01   0.000e+00
   8.069e-01   5.053e-01   0.000e+00
   1.111e+00   6.929e-01   0.000e+00
   8.069e-01   5.053e-01   0.000e+00
   1.256e+00   6.853e-01   0.000e+00
   1.150e+00   6.283e-01   0.000e+00
   1.150e+00   6.283e-01   0.000e+00
   1.256e+00   6.853e-01   0.000e+00
   1.150e+00   6.283e-01   0.000e+00
   1.256e+00   6.853e-01   0.000e+00
   1.150e+00   6.283e-01   0.000e+00
   1.573e+00   7.695e-01   0.000e+00
   2.087e+00   9.206e-01   0.000e+00
   2.696e+00   1.083e+00   0.000e+00
   3.409e+00   1.258e+00   0.000e+00
   4.236e+00   1.446e+00   0.000e+00
   5.185e+00   1.647e+00   0.000e+00
  -5.080e+00   2.007e+00   0.000e+00
  -4.158e+00   1.765e+00   0.000e+00
  -3.357e+00   1.539e+00   0.000e+00
  -2.668e+00   1.329e+00   0.000e+00
  -2.082e+00   1.135e+00   0.000e+00
  -1.591e+00   9.562e-01   0.000e+00
  -1.187e+00   7.943e-01   0.000e+00
  -8.593e-01   6.492e-01   0.000e+00
  -5.989e-01   5.205e-01   0.000e+00
  -3.970e-01   4.074e-01   0.000e+00
  -2.461e-01   3.095e-01   0.000e+00
  -1.387e-01   2.272e-01   0.000e+00
  -6.783e-02   1.629e-01   0.000e+00
  -2.061e-01   8.287e-01   0.000e+00
  -2.061e-01   8.287e-01   0.000e+00
  -2.061e-01   8.287e-01   0.000e+00
  -2.061e-01   8.287e-01   0.000e+00
  -2.098e-02   1.226e-01   0.000e+00
  -5.615e-02   8.370e-01   0.000e+00
   9.824e-02   8.440e-01   0.000e+00
   2.624e-01   8.463e-01   0.000e+00
   4.296e-01   8.202e-01   0.000e+00
   1.843e-01   5.191e-02   0.000e+00
   4.296e-01   8.202e-01   0.000e+00
   1.843e-01   5.191e-02   0.000e+00
   4.296e-01   8.202e-01   0.000e+00
   1.843e-01   5.191e-02   0.000e+00
   4.296e-01   8.202e-01   0.000e+00
   7.812e-02   1.081e-01   0.000e+00
   1.819e-01   3.107e-01   0.000e+00
   3.928e-01   4.535e-01   0.000e+00
   6.401e-01   5.760e-01   0.000e+00
   9.354e-01   7.089e-01   0.000e+00
   1.296e+00   8.582e-01   0.000e+00
   1.734e+00   1.024e+00   0.000e+00
   2.260e+00   1.206e+00   0.000e+00
   2.882e+00   1.403e+00   0.000e+00
   3.610e+00   1.616e+00   0.000e+00
   4.452e+00   1.845e+00   0.000e+00
   5.416e+00   2.090e+00   0.000e+00
  -5.352e+00   2.488e+00   0.000e+00
  -4.412e+00   2.204e+00   0.000e+00
  -3.593e+00   1.939e+00   0.000e+00
  -2.887e+00   1.694e+00   0.000e+00
  -2.284e+00   1.468e+00   0.000e+00
  -1.775e+00   1.261e+00   0.000e+00
  -1.353e+00   1.073e+00   0.000e+00
  -1.007e+00   9.051e-01   0.000e+00
  -7.288e-01   7.568e-01   0.000e+00
  -5.096e-01   6.277e-01   0.000e+00
  -3.411e-01   5.180e-01   0.000e+00
  -2.149e-01   4.284e-01   0.000e+00
  -1.228e-01   3.606e-01   0.000e+00
  -1.990e-01   9.709e-01   0.000e+00
  -1.990e-01   9.709e-01   0.000e+00
  -1.990e-01   9.709e-01   0.000e+00
  -1.990e-01   9.709e-01   0.000e+00
  -5.111e-02   3.185e-01   0.000e+00
  -5.063e-02   9.754e-01   0.000e+00
   1.009e-01   9.777e-01   0.000e+00
   2.549e-01   9.752e-01   0.000e+00
   4.051e-01   9.626e-01   0.000e+00
   1.740e-01   2.878e-01   0.000e+00
   4.051e-01   9.626e-01   0.000e+00
   1.740e-01   2.878e-01   0.000e+00
   4.051e-01   9.626e-01   0.000e+00
   1.740e-01   2.878e-01   0.000e+00
   4.051e-01   9.626e-01   0.000e+00
   2.195e-01   3.764e-01   0.000e+00
   3.385e-01   5.103e-01   0.000e+00
   5.298e-01   6.549e-01   0.000e+00
   7.802e-01   8.031e-01   0.000e+00
   1.090e+00   9.627e-01   0.000e+00
   1.467e+00   1.139e+00   0.000e+00
   1.923e+00   1.333e+00   0.000e+00
   2.466e+00   1.546e+00   0.000e+00
   3.105e+00   1.777e+00   0.000e+00
   3.850e+00   2.027e+00   0.000e+00
   4.710e+00   2.297e+00   0.000e+00
   5.692e+00   2.585e+00   0.000e+00
  -5.668e+00   3.030e+00   0.000e+00
  -4.707e+00   2.704e+00   0.000e+00
  -3.867e+00   2.401e+00   0.000e+00
  -3.139e+00   2.120e+00   0.000e+00
  -2.515e+00   1.862e+00   0.000e+00
  -1.986e+00   1.626e+00   0.000e+00
  -1.542e+00   1.413e+00   0.000e+00
  -1.176e+00   1.222e+00   0.000e+00
  -8.764e-01   1.054e+00   0.000e+00
  -6.361e-01   9.093e-01   0.000e+00
  -4.460e-01   7.873e-01   0.000e+00
  -2.975e-01   6.889e-01   0.000e+00
  -1.814e-01   6.152e-01   0.000e+00
  -1.952e-01   1.114e+00   0.000e+00
  -8.353e-02   5.685e-01   0.000e+00
  -1.952e-01   1.114e+00   0.000e+00
  -8.353e-02   5.685e-01   0.000e+00
  -1.952e-01   1.114e+00   0.000e+00
  -8.353e-02   5.685e-01   0.000e+00
  -8.353e-02   5.685e-01   0.000e+00
  -4.818e-02   1.116e+00   0.000e+00
   1.004e-01   1.116e+00   0.000e+00
   2.493e-01   1.114e+00   0.000e+00
   3.960e-01   1.108e+00   0.000e+00
   2.238e-01   5.786e-01   0.000e+00
   3.960e-01   1.108e+00   0.000e+00
   2.238e-01   5.786e-01   0.000e+00
   3.960e-01   1.108e+00   0.000e+00
   2.238e-01   5.786e-01   0.000e+00
   3.960e-01   1.108e+00   0.000e+00
   3.286e-01   6.675e-01   0.000e+00
   4.764e-01   7.894e-01   0.000e+00
   6.801e-01   9.352e-01   0.000e+00
   9.430e-01   1.099e+00   0.000e+00
   1.269e+00   1.280e+00   0.000e+00
   1.665e+00   1.481e+00   0.000e+00
   2.141e+00   1.703e+00   0.000e+00
   2.704e+00   1.947e+00   0.000e+00
   3.364e+00   2.213e+00   0.000e+00
   4.130e+00   2.500e+00   0.000e+00
   5.010e+00   2.810e+00   0.000e+00
   6.013e+00   3.142e+00   0.000e+00
  -6.026e+00   3.642e+00   0.000e+00
  -5.041e+00   3.275e+00   0.000e+00
  -4.177e+00   2.933e+00   0.000e+00
  -3.426e+00   2.617e+00   0.000e+00
  -2.778e+00   2.327e+00   0.000e+00
  -2.224e+00   2.062e+00   0.000e+00
  -1.757e+00   1.823e+00   0.000e+00
  -1.365e+00   1.609e+00   0.000e+00
  -1.042e+00   1.422e+00   0.000e+00
  -7.770e-01   1.261e+00   0.000e+00
  -5.620e-01   1.126e+00   0.000e+00
  -3.878e-01   1.018e+00   0.000e+00
  -2.452e-01   9.369e-01   0.000e+00
  -1.924e-01   1.257e+00   0.000e+00
  -1.228e-01   8.834e-01   0.000e+00
  -1.924e-01   1.257e+00   0.000e+00
  -1.228e-01   8.834e-01   0.000e+00
  -1.924e-01   1.257e+00   0.000e+00
  -1.228e-01   8.834e-01   0.000e+00
  -1.228e-01   8.834e-01   0.000e+00
  -4.735e-02   1.258e+00   0.000e+00
  -4.735e-02   1.258e+00   0.000e+00
  -4.735e-02   1.258e+00   0.000e+00
  -4.735e-02   1.258e+00   0.000e+00
   3.792e+01  -1.401e+02   0.000e+00
   9.951e-02   1.258e+00   0.000e+00
   2.461e-01   1.256e+00   0.000e+00
   2.958e-01   9.206e-01   0.000e+00
   2.958e-01   9.206e-01   0.000e+00
   2.958e-01   9.206e-01   0.000e+00
   3.913e-01   1.252e+00   0.000e+00
   2.958e-01   9.206e-01   0.000e+00
   4.358e-01   1.014e+00   0.000e+00
   6.134e-01   1.139e+00   0.000e+00
   8.402e-01   1.292e+00   0.000e+00
   1.124e+00   1.469e+00   0.000e+00
   1.471e+00   1.671e+00   0.000e+00
   1.890e+00   1.896e+00   0.000e+00
   2.388e+00   2.145e+00   0.000e+00
   2.974e+00   2.420e+00   0.000e+00
   3.658e+00   2.719e+00   0.000e+00
   4.447e+00   3.043e+00   0.000e+00
   5.352e+00   3.393e+00   0.000e+00
   6.379e+00   3.768e+00   0.000e+00
  -6.428e+00   4.334e+00   0.000e+00
  -5.416e+00   3.925e+00   0.000e+00
  -4.525e+00   3.545e+00   0.000e+00
  -3.746e+00   3.193e+00   0.000e+00
  -3.071e+00   2.870e+00   0.000e+00
  -2.490e+00   2.577e+00   0.000e+00
  -1.995e+00   2.312e+00   0.000e+00
  -1.576e+00   2.076e+00   0.000e+00
  -1.225e+00   1.869e+00   0.000e+00
  -9.326e-01   1.691e+00   0.000e+00
  -6.896e-01   1.543e+00   0.000e+00
  -4.870e-01   1.424e+00   0.000e+00
  -3.154e-01   1.335e+00   0.000e+00
  -1.655e-01   1.277e+00   0.000e+00
  -4.713e-02   1.401e+00   0.000e+00
  -4.713e-02   1.401e+00   0.000e+00
  -2.034e-02   1.246e+00   0.000e+00
  -4.713e-02   1.401e+00   0.000e+00
  -2.034e-02   1.246e+00   0.000e+00
  -4.713e-02   1.401e+00   0.000e+00
  -2.034e-02   1.246e+00   0.000e+00
   9.875e-02   1.401e+00   0.000e+00
   2.443e-01   1.400e+00   0.000e+00
   2.299e-01   1.265e+00   0.000e+00
   2.299e-01   1.265e+00   0.000e+00
   2.443e-01   1.400e+00   0.000e+00
   2.299e-01   1.265e+00   0.000e+00
   2.443e-01   1.400e+00   0.000e+00
   2.299e-01   1.265e+00   0.000e+00
   3.765e-01   1.333e+00   0.000e+00
   5.486e-01   1.433e+00   0.000e+00
   7.571e-01   1.566e+00   0.000e+00
   1.012e+00   1.729e+00   0.000e+00
   1.322e+00   1.922e+00   0.000e+00
   1.695e+00   2.142e+00   0.000e+00
   2.140e+00   2.391e+00   0.000e+00
   2.664e+00   2.667e+00   0.000e+00
   3.277e+00   2.972e+00   0.000e+00
   3.987e+00   3.305e+00   0.000e+00
   4.804e+00   3.666e+00   0.000e+00
   5.735e+00   4.056e+00   0.000e+00
   6.790e+00   4.474e+00   0.000e+00
  -6.873e+00   5.113e+00   0.000e+00
  -5.831e+00   4.663e+00   0.000e+00
  -4.909e+00   4.244e+00   0.000e+00
  -4.100e+00   3.858e+00   0.000e+00
  -3.394e+00   3.503e+00   0.000e+00
  -2.783e+00   3.180e+00   0.000e+00
  -2.258e+00   2.889e+00   0.000e+00
  -1.808e+00   2.630e+00   0.000e+00
  -1.427e+00   2.403e+00   0.000e+00
  -1.103e+00   2.209e+00   0.000e+00
  -8.292e-01   2.047e+00   0.000e+00
  -5.953e-01   1.917e+00   0.000e+00
  -3.924e-01   1.821e+00   0.000e+00
  -2.111e-01   1.756e+00   0.000e+00
  -7.107e-03   1.517e+00   0.000e+00
  -4.146e-02   1.723e+00   0.000e+00
  -4.146e-02   1.723e+00   0.000e+00
  -4.146e-02   1.723e+00   0.000e+00
  -4.146e-02   1.723e+00   0.000e+00
   9.772e-02   1.541e+00   0.000e+00
   1.211e-01   1.720e+00   0.000e+00
   1.211e-01   1.720e+00   0.000e+00
   1.211e-01   1.720e+00   0.000e+00
   1.211e-01   1.720e+00   0.000e+00
   2.837e-01   1.756e+00   0.000e+00
   4.635e-01   1.829e+00   0.000e+00
   6.693e-01   1.936e+00   0.000e+00
   9.107e-01   2.079e+00   0.000e+00
   1.197e+00   2.254e+00   0.000e+00
   1.538e+00   2.463e+00   0.000e+00
   1.941e+00   2.703e+00   0.000e+00
   2.415e+00   2.975e+00   0.000e+00
   2.969e+00   3.279e+00   0.000e+00
   3.612e+00   3.613e+00   0.000e+00
   4.352e+00   3.980e+00   0.000e+00
   5.198e+00   4.378e+00   0.000e+00
   6.160e+00   4.807e+00   0.000e+00
   7.245e+00   5.268e+00   0.000e+00
  -7.361e+00   5.991e+00   0.000e+00
  -6.285e+00   5.499e+00   0.000e+00
  -5.330e+00   5.041e+00   0.000e+00
  -4.488e+00   4.619e+00   0.000e+00
  -3.749e+00   4.232e+00   0.000e+00
  -3.104e+00   3.880e+00   0.000e+00
  -2.545e+00   3.563e+00   0.000e+00
  -2.062e+00   3.281e+00   0.000e+00
  -1.646e+00   3.035e+00   0.000e+00
  -1.289e+00   2.823e+00   0.000e+00
  -9.811e-01   2.648e+00   0.000e+00
  -7.132e-01   2.507e+00   0.000e+00
  -4.761e-01   2.402e+00   0.000e+00
  -2.609e-01   2.333e+00   0.000e+00
  -5.881e-02   2.299e+00   0.000e+00
   1.384e-01   2.301e+00   0.000e+00
   3.401e-01   2.341e+00   0.000e+00
   5.569e-01   2.419e+00   0.000e+00
   7.989e-01   2.534e+00   0.000e+00
   1.076e+00   2.687e+00   0.000e+00
   1.397e+00   2.876e+00   0.000e+00
   1.771e+00   3.101e+00   0.000e+00
   2.208e+00   3.362e+00   0.000e+00
   2.715e+00   3.657e+00   0.000e+00
   3.302e+00   3.987e+00   0.000e+00
   3.978e+00   4.352e+00   0.000e+00
   4.751e+00   4.752e+00   0.000e+00
   5.631e+00   5.187e+00   0.000e+00
   6.626e+00   5.656e+00   0.000e+00
   7.744e+00   6.160e+00   0.000e+00
  -7.892e+00   6.974e+00   0.000e+00
  -6.780e+00   6.440e+00   0.000e+00
  -5.788e+00   5.945e+00   0.000e+00
  -4.909e+00   5.487e+00   0.000e+00
  -4.134e+00   5.068e+00   0.000e+00
  -3.452e+00   4.687e+00   0.000e+00
  -2.856e+00   4.343e+00   0.000e+00
  -2.337e+00   4.039e+00   0.000e+00
  -1.884e+00   3.772e+00   0.000e+00
  -1.490e+00   3.544e+00   0.000e+00
  -1.145e+00   3.354e+00   0.000e+00
  -8.404e-01   3.203e+00   0.000e+00
  -5.664e-01   3.090e+00   0.000e+00
  -3.141e-01   3.016e+00   0.000e+00
  -7.479e-02   2.981e+00   0.000e+00
   1.606e-01   2.985e+00   0.000e+00
   4.014e-01   3.028e+00   0.000e+00
   6.573e-01   3.112e+00   0.000e+00
   9.381e-01   3.236e+00   0.000e+00
   1.253e+00   3.400e+00   0.000e+00
   1.612e+00   3.604e+00   0.000e+00
   2.023e+00   3.846e+00   0.000e+00
   2.497e+00   4.127e+00   0.000e+00
   3.041e+00   4.446e+00   0.000e+00
   3.664e+00   4.803e+00   0.000e+00
   4.376e+00   5.198e+00   0.000e+00
   5.186e+00   5.631e+00   0.000e+00
   6.102e+00   6.102e+00   0.000e+00
   7.133e+00   6.611e+00   0.000e+00
   8.288e+00   7.158e+00   0.000e+00
  -8.467e+00   8.073e+00   0.000e+00
  -7.315e+00   7.498e+00   0.000e+00
  -6.283e+00   6.963e+00   0.000e+00
  -5.365e+00   6.471e+00   0.000e+00
  -4.549e+00   6.019e+00   0.000e+00
  -3.828e+00   5.608e+00   0.000e+00
  -3.193e+00   5.239e+00   0.000e+00
  -2.633e+00   4.911e+00   0.000e+00
  -2.141e+00   4.624e+00   0.000e+00
  -1.707e+00   4.379e+00   0.000e+00
  -1.322e+00   4.176e+00   0.000e+00
  -9.772e-01   4.013e+00   0.000e+00
  -6.630e-01   3.893e+00   0.000e+00
  -3.706e-01   3.814e+00   0.000e+00
  -9.077e-02   3.776e+00   0.000e+00
   1.856e-01   3.781e+00   0.000e+00
   4.677e-01   3.829e+00   0.000e+00
   7.651e-01   3.919e+00   0.000e+00
   1.087e+00   4.052e+00   0.000e+00
   1.443e+00   4.227e+00   0.000e+00
   1.843e+00   4.445e+00   0.000e+00
   2.295e+00   4.705e+00   0.000e+00
   2.808e+00   5.007e+00   0.000e+00
   3.392e+00   5.350e+00   0.000e+00
   4.055e+00   5.734e+00   0.000e+00
   4.806e+00   6.159e+00   0.000e+00
   5.655e+00   6.626e+00   0.000e+00
   6.611e+00   7.133e+00   0.000e+00
   7.681e+00   7.681e+00   0.000e+00
   8.876e+00   8.271e+00   0.000e+00
  -9.085e+00   9.294e+00   0.000e+00
  -7.889e+00   8.678e+00   0.000e+00
  -6.816e+00   8.105e+00   0.000e+00
  -5.854e+00   7.577e+00   0.000e+00
  -4.996e+00   7.093e+00   0.000e+00
  -4.232e+00   6.653e+00   0.000e+00
  -3.554e+00   6.258e+00   0.000e+00
  -2.952e+00   5.907e+00   0.000e+00
  -2.416e+00   5.600e+00   0.000e+00
  -1.939e+00   5.338e+00   0.000e+00
  -1.512e+00   5.120e+00   0.000e+00
  -1.124e+00   4.947e+00   0.000e+00
  -7.663e-01   4.818e+00   0.000e+00
  -4.307e-01   4.734e+00   0.000e+00
  -1.074e-01   4.694e+00   0.000e+00
   2.126e-01   4.700e+00   0.000e+00
   5.388e-01   4.751e+00   0.000e+00
   8.804e-01   4.847e+00   0.000e+00
   1.247e+00   4.989e+00   0.000e+00
   1.647e+00   5.177e+00   0.000e+00
   2.090e+00   5.410e+00   0.000e+00
   2.585e+00   5.687e+00   0.000e+00
   3.141e+00   6.010e+00   0.000e+00
   3.768e+00   6.377e+00   0.000e+00
   4.474e+00   6.788e+00   0.000e+00
   5.268e+00   7.244e+00   0.000e+00
   6.160e+00   7.744e+00   0.000e+00
   7.158e+00   8.288e+00   0.000e+00
   8.271e+00   8.876e+00   0.000e+00
   9.507e+00   9.507e+00   0.000e+00

POINT_DATA 8044
VECTORS displacement float
   5.431e-01   0.000e+00   0.000e+00
   4.743e-01   0.000e+00   0.000e+00
   4.743e-01   0.000e+00   0.000e+00
   4.743e-01   0.000e+00   0.000e+00
   4.144e-01   0.000e+00   0.000e+00
   4.101e-01   0.000e+00   0.000e+00
   4.144e-01   0.000e+00   0.000e+00
   3.625e-01   0.000e+00   0.000e+00
   3.545e-01   0.000e+00   0.000e+00
   3.625e-01   0.000e+00   0.000e+00
   3.178e-01   0.000e+00   0.000e+00
   3.066e-01   0.000e+00   0.000e+00
   3.178e-01   0.000e+00   0.000e+00
   2.796e-01   0.000e+00   0.000e+00
   2.656e-01   0.000e+00   0.000e+00
   2.796e-01   0.000e+00   0.000e+00
   2.470e-01   0.000e+00   0.000e+00
   2.307e-01   0.000e+00   0.000e+00
   2.470e-01   0.000e+00   0.000e+00
   2.196e-01   0.000e+00   0.000e+00
   2.013e-01   0.000e+00   0.000e+00
   2.196e-01   0.000e+00   0.000e+00
   1.968e-01   0.000e+00   0.000e+00
   1.766e-01   0.000e+00   0.000e+00
   1.968e-01   0.000e+00   0.000e+00
   1.780e-01   0.000e+00   0.000e+00
   1.561e-01   0.000e+00   0.000e+00
   1.780e-01   0.000e+00   0.000e+00
   1.628e-01   0.000e+00   0.000e+00
   1.394e-01   0.000e+00   0.000e+00
   1.628e-01   0.000e+00   0.000e+00
   1.509e-01   0.000e+00   0.000e+00
   1.260e-01   0.000e+00   0.000e+00
   1.509e-01   0.000e+00   0.000e+00
   1.419e-01   0.000e+00   0.000e+00
   1.156e-01   0.000e+00   0.000e+00
   1.419e-01   0.000e+00   0.000e+00
   1.357e-01   0.000e+00   0.000e+00
   1.077e-01   0.000e+00   0.000e+00
   1.357e-01   0.000e+00   0.000e+00
   1.320e-01   0.000e+00   0.000e+00
   1.023e-01   0.000e+00   0.000e+00
   1.320e-01   0.000e+00   0.000e+00
   1.308e-01   0.000e+00   0.000e+00
   9.911e-02   0.000e+00   0.000e+00
   1.308e-01   0.000e+00   0.000e+00
   1.320e-01   0.000e+00   0.000e+00
   9.805e-02   0.000e+00   0.000e+00
   1.320e-01   0.000e+00   0.000e+00
   1.357e-01   0.000e+00   0.000e+00
   9.910e-02   0.000e+00   0.000e+00
   1.357e-01   0.000e+00   0.000e+00
   1.419e-01   0.000e+00   0.000e+00
   1.023e-01   0.000e+00   0.000e+00
   1.419e-01   0.000e+00   0.000e+00
   1.509e-01   0.000e+00   0.000e+00
   1.077e-01   0.000e+00   0.000e+00
   1.509e-01   0.000e+00   0.000e+00
   1.628e-01   0.000e+00   0.000e+00
   1.155e-01   0.000e+00   0.000e+00
   1.628e-01   0.000e+00   0.000e+00
   1.780e-01   0.000e+00   0.000e+00
   1.260e-01   0.000e+00   0.000e+00
   1.780e-01   0.000e+00   0.000e+00
   1.968e-01   0.000e+00   0.000e+00
   1.394e-01   0.000e+00   0.000e+00
   1.968e-01   0.000e+00   0.000e+00
   2.196e-01   0.000e+00   0.000e+00
   1.561e-01   0.000e+00   0.000e+00
   2.196e-01   0.000e+00   0.000e+00
   2.470e-01   0.000e+00   0.000e+00
   1.765e-01   0.000e+00   0.000e+00
   2.470e-01   0.000e+00   0.000e+00
   2.796e-01   0.000e+00   0.000e+00
   2.012e-01   0.000e+00   0.000e+00
   2.796e-01   0.000e+00   0.000e+00
   3.178e-01   0.000e+00   0.000e+00
   2.307e-01   0.000e+00   0.000e+00
   3.178e-01   0.000e+00   0.000e+00
   3.625e-01   0.000e+00   0.000e+00
   2.656e-01   0.000e+00   0.000e+00
   3.625e-01   0.000e+00   0.000e+00
   4.144e-01   0.000e+00   0.000e+00
   3.066e-01   0.000e+00   0.000e+00
   4.144e-01   0.000e+00   0.000e+00
   4.743e-01   0.000e+00   0.000e+00
   3.545e-01   0.000e+00   0.000e+00
   4.743e-01   0.000e+00   0.000e+00
   5.431e-01   0.000e+00   0.000e+00
   4.101e-01   0.000e+00   0.000e+00
   4.743e-01   0.000e+00   0.000e+00
   4.101e-01   0.000e+00   0.000e+00
   4.144e-01   0.000e+00   0.000e+00
   4.101e-01   0.000e+00   0.000e+00
   3.545e-01   0.000e+00   0.000e+00
   3.545e-01   0.000e+00   0.000e+00
   3.545e-01   0.000e+00   0.000e+00
   3.066e-01   0.000e+00   0.000e+00
   3.030e-01   0.000e+00   0.000e+00
   3.066e-01   0.000e+00   0.000e+00
   2.656e-01   0.000e+00   0.000e+00
   2.588e-01   0.000e+00   0.000e+00
   2.656e-01   0.000e+00   0.000e+00
   2.307e-01   0.000e+00   0.000e+00
   2.212e-01   0.000e+00   0.000e+00
   2.307e-01   0.000e+00   0.000e+00
   2.013e-01   0.000e+00   0.000e+00
   1.894e-01   0.000e+00   0.000e+00
   2.013e-01   0.000e+00   0.000e+00
   1.766e-01   0.000e+00   0.000e+00
   1.628e-01   0.000e+00   0.000e+00
   1.766e-01   0.000e+00   0.000e+00
   1.561e-01   0.000e+00   0.000e+00
   1.407e-01   0.000e+00   0.000e+00
   1.561e-01   0.000e+00   0.000e+00
   1.394e-01   0.000e+00   0.000e+00
   1.225e-01   0.000e+00   0.000e+00
   1.394e-01   0.000e+00   0.000e+00
   1.260e-01   0.000e+00   0.000e+00
   1.077e-01   0.000e+00   0.000e+00
   1.260e-01   0.000e+00   0.000e+00
   1.156e-01   0.000e+00   0.000e+00
   9.598e-02   0.000e+00   0.000e+00
   1.156e-01   0.000e+00   0.000e+00
   1.077e-01   0.000e+00   0.000e+00
   8.686e-02   0.000e+00   0.000e+00
   1.077e-01   0.000e+00   0.000e+00
   1.023e-01   0.000e+00   0.000e+00
   8.009e-02   0.000e+00   0.000e+00
   1.023e-01   0.000e+00   0.000e+00
   9.911e-02   0.000e+00   0.000e+00
   7.541e-02   0.000e+00   0.000e+00
   9.911e-02   0.000e+00   0.000e+00
   9.805e-02   0.000e+00   0.000e+00
   7.267e-02   0.000e+00   0.000e+00
   9.805e-02   0.000e+00   0.000e+00
   9.910e-02   0.000e+00   0.000e+00
   7.176e-02   0.000e+00   0.000e+00
   9.910e-02   0.000e+00   0.000e+00
   1.023e-01   0.000e+00   0.000e+00
   7.265e-02   0.000e+00   0.000e+00
   1.023e-01   0.000e+00   0.000e+00
   1.077e-01   0.000e+00   0.000e+00
   7.538e-02   0.000e+00   0.000e+00
   1.077e-01   0.000e+00   0.000e+00
   1.155e-01   0.000e+00   0.000e+00
   8.004e-02   0.000e+00   0.000e+00
   1.155e-01   0.000e+00   0.000e+00
   1.260e-01   0.000e+00   0.000e+00
   8.681e-02   0.000e+00   0.000e+00
   1.260e-01   0.000e+00   0.000e+00
   1.394e-01   0.000e+00   0.000e+00
   9.591e-02   0.000e+00   0.000e+00
   1.394e-01   0.000e+00   0.000e+00
   1.561e-01   0.000e+00   0.000e+00
   1.077e-01   0.000e+00   0.000e+00
   1.561e-01   0.000e+00   0.000e+00
   1.765e-01   0.000e+00   0.000e+00
   1.224e-01   0.000e+00   0.000e+00
   1.765e-01   0.000e+00   0.000e+00
   2.012e-01   0.000e+00   0.000e+00
   1.406e-01   0.000e+00   0.000e+00
   2.012e-01   0.000e+00   0.000e+00
   2.307e-01   0.000e+00   0.000e+00
   1.627e-01   0.000e+00   0.000e+00
   2.307e-01   0.000e+00   0.000e+00
   2.656e-01   0.000e+00   0.000e+00
   1.894e-01   0.000e+00   0.000e+00
   2.656e-01   0.000e+00   0.000e+00
   3.066e-01   0.000e+00   0.000e+00
   2.211e-01   0.000e+00   0.000e+00
   3.066e-01   0.000e+00   0.000e+00
   3.545e-01   0.000e+00   0.000e+00
   2.587e-01   0.000e+00   0.000e+00
   3.545e-01   0.000e+00   0.000e+00
   4.101e-01   0.000e+00   0.000e+00
   3.029e-01   0.000e+00   0.000e+00
   4.101e-01   0.000e+00   0.000e+00
   4.743e-01   0.000e+00   0.000e+00
   3.545e-01   0.000e+00   0.000e+00
   4.144e-01   0.000e+00   0.000e+00
   3.545e-01   0.000e+00   0.000e+00
   3.625e-01   0.000e+00   0.000e+00
   3.545e-01   0.000e+00   0.000e+00
   3.030e-01   0.000e+00   0.000e+00
   3.066e-01   0.000e+00   0.000e+00
   3.030e-01   0.000e+00   0.000e+00
   2.588e-01   0.000e+00   0.000e+00
   2.588e-01   0.000e+00   0.000e+00
   2.588e-01   0.000e+00   0.000e+00
   2.212e-01   0.000e+00   0.000e+00
   2.181e-01   0.000e+00   0.000e+00
   2.212e-01   0.000e+00   0.000e+00
   1.894e-01   0.000e+00   0.000e+00
   1.837e-01   0.000e+00   0.000e+00
   1.894e-01   0.000e+00   0.000e+00
   1.628e-01   0.000e+00   0.000e+00
   1.548e-01   0.000e+00   0.000e+00
   1.628e-01   0.000e+00   0.000e+00
   1.407e-01   0.000e+00   0.000e+00
   1.308e-01   0.000e+00   0.000e+00
   1.407e-01   0.000e+00   0.000e+00
   1.225e-01   0.000e+00   0.000e+00
   1.111e-01   0.000e+00   0.000e+00
   1.225e-01   0.000e+00   0.000e+00
   1.077e-01   0.000e+00   0.000e+00
   9.496e-02   0.000e+00   0.000e+00
   1.077e-01   0.000e+00   0.000e+00
   9.598e-02   0.000e+00   0.000e+00
   8.202e-02   0.000e+00   0.000e+00
   9.598e-02   0.000e+00   0.000e+00
   8.686e-02   0.000e+00   0.000e+00
   7.181e-02   0.000e+00   0.000e+00
   8.686e-02   0.000e+00   0.000e+00
   8.009e-02   0.000e+00   0.000e+00
   6.395e-02   0.000e+00   0.000e+00
   8.009e-02   0.000e+00   0.000e+00
   7.541e-02   0.000e+00   0.000e+00
   5.815e-02   0.000e+00   0.000e+00
   7.541e-02   0.000e+00   0.000e+00
   7.267e-02   0.000e+00   0.000e+00
   5.418e-02   0.000e+00   0.000e+00
   7.267e-02   0.000e+00   0.000e+00
   7.176e-02   0.000e+00   0.000e+00
   5.185e-02   0.000e+00   0.000e+00
   7.176e-02   0.000e+00   0.000e+00
   7.265e-02   0.000e+00   0.000e+00
   5.108e-02   0.000e+00   0.000e+00
   7.265e-02   0.000e+00   0.000e+00
   7.538e-02   0.000e+00   0.000e+00
   5.183e-02   0.000e+00   0.000e+00
   7.538e-02   0.000e+00   0.000e+00
   8.004e-02   0.000e+00   0.000e+00
   5.413e-02   0.000e+00   0.000e+00
   8.004e-02   0.000e+00   0.000e+00
   8.681e-02   0.000e+00   0.000e+00
   5.808e-02   0.000e+00   0.000e+00
   8.681e-02   0.000e+00   0.000e+00
   9.591e-02   0.000e+00   0.000e+00
   6.386e-02   0.000e+00   0.000e+00
   9.591e-02   0.000e+00   0.000e+00
   1.077e-01   0.000e+00   0.000e+00
   7.170e-02   0.000e+00   0.000e+00
   1.077e-01   0.000e+00   0.000e+00
   1.224e-01   0.000e+00   0.000e+00
   8.190e-02   0.000e+00   0.000e+00
   1.224e-01   0.000e+00   0.000e+00
   1.406e-01   0.000e+00   0.000e+00
   9.484e-02   0.000e+00   0.000e+00
   1.406e-01   0.000e+00   0.000e+00
   1.627e-01   0.000e+00   0.000e+00
   1.109e-01   0.000e+00   0.000e+00
   1.627e-01   0.000e+00   0.000e+00
   1.894e-01   0.000e+00   0.000e+00
   1.307e-01   0.000e+00   0.000e+00
   1.894e-01   0.000e+00   0.000e+00
   2.211e-01   0.000e+00   0.000e+00
   1.547e-01   0.000e+00   0.000e+00
   2.211e-01   0.000e+00   0.000e+00
   2.587e-01   0.000e+00   0.000e+00
   1.836e-01   0.000e+00   0.000e+00
   2.587e-01   0.000e+00   0.000e+00
   3.029e-01   0.000e+00   0.000e+00
   2.180e-01   0.000e+00   0.000e+00
   3.029e-01   0.000e+00   0.000e+00
   3.545e-01   0.000e+00   0.000e+00
   2.587e-01   0.000e+00   0.000e+00
   3.545e-01   0.000e+00   0.000e+00
   4.144e-01   0.000e+00   0.000e+00
   3.066e-01   0.000e+00   0.000e+00
   3.625e-01   0.000e+00   0.000e+00
   3.066e-01   0.000e+00   0.000e+00
   3.178e-01   0.000e+00   0.000e+00
   3.066e-01   0.000e+00   0.000e+00
   2.588e-01   0.000e+00   0.000e+00
   2.656e-01   0.000e+00   0.000e+00
   2.588e-01   0.000e+00   0.000e+00
   2.181e-01   0.000e+00   0.000e+00
   2.212e-01   0.000e+00   0.000e+00
   2.181e-01   0.000e+00   0.000e+00
   1.837e-01   0.000e+00   0.000e+00
   1.837e-01   0.000e+00   0.000e+00
   1.837e-01   0.000e+00   0.000e+00
   1.548e-01   0.000e+00   0.000e+00
   1.522e-01   0.000e+00   0.000e+00
   1.548e-01   0.000e+00   0.000e+00
   1.308e-01   0.000e+00   0.000e+00
   1.261e-01   0.000e+00   0.000e+00
   1.308e-01   0.000e+00   0.000e+00
   1.111e-01   0.000e+00   0.000e+00
   1.045e-01   0.000e+00   0.000e+00
   1.111e-01   0.000e+00   0.000e+00
   9.496e-02   0.000e+00   0.000e+00
   8.691e-02   0.000e+00   0.000e+00
   9.496e-02   0.000e+00   0.000e+00
   8.202e-02   0.000e+00   0.000e+00
   7.274e-02   0.000e+00   0.000e+00
   8.202e-02   0.000e+00   0.000e+00
   7.181e-02   0.000e+00   0.000e+00
   6.148e-02   0.000e+00   0.000e+00
   7.181e-02   0.000e+00   0.000e+00
   6.395e-02   0.000e+00   0.000e+00
   5.269e-02   0.000e+00   0.000e+00
   6.395e-02   0.000e+00   0.000e+00
   5.815e-02   0.000e+00   0.000e+00
   4.600e-02   0.000e+00   0.000e+00
   5.815e-02   0.000e+00   0.000e+00
   5.418e-02   0.000e+00   0.000e+00
   4.111e-02   0.000e+00   0.000e+00
   5.418e-02   0.000e+00   0.000e+00
   5.185e-02   0.000e+00   0.000e+00
   3.778e-02   0.000e+00   0.000e+00
   5.185e-02   0.000e+00   0.000e+00
   5.108e-02   0.000e+00   0.000e+00
   3.585e-02   0.000e+00   0.000e+00
   5.108e-02   0.000e+00   0.000e+00
   5.183e-02   0.000e+00   0.000e+00
   3.520e-02   0.000e+00   0.000e+00
   5.183e-02   0.000e+00   0.000e+00
   5.413e-02   0.000e+00   0.000e+00
   3.581e-02   0.000e+00   0.000e+00
   5.413e-02   0.000e+00   0.000e+00
   5.808e-02   0.000e+00   0.000e+00
   3.771e-02   0.000e+00   0.000e+00
   5.808e-02   0.000e+00   0.000e+00
   6.386e-02   0.000e+00   0.000e+00
   4.101e-02   0.000e+00   0.000e+00
   6.386e-02   0.000e+00   0.000e+00
   7.170e-02   0.000e+00   0.000e+00
   4.587e-02   0.000e+00   0.000e+00
   7.170e-02   0.000e+00   0.000e+00
   8.190e-02   0.000e+00   0.000e+00
   5.254e-02   0.000e+00   0.000e+00
   8.190e-02   0.000e+00   0.000e+00
   9.484e-02   0.000e+00   0.000e+00
   6.131e-02   0.000e+00   0.000e+00
   9.484e-02   0.000e+00   0.000e+00
   1.109e-01   0.000e+00   0.000e+00
   7.256e-02   0.000e+00   0.000e+00
   1.109e-01   0.000e+00   0.000e+00
   1.307e-01   0.000e+00   0.000e+00
   8.673e-02   0.000e+00   0.000e+00
   1.307e-01   0.000e+00   0.000e+00
   1.547e-01   0.000e+00   0.000e+00
   1.043e-01   0.000e+00   0.000e+00
   1.547e-01   0.000e+00   0.000e+00
   1.836e-01   0.000e+00   0.000e+00
   1.259e-01   0.000e+00   0.000e+00
   1.836e-01   0.000e+00   0.000e+00
   2.180e-01   0.000e+00   0.000e+00
   1.521e-01   0.000e+00   0.000e+00
   2.180e-01   0.000e+00   0.000e+00
   2.587e-01   0.000e+00   0.000e+00
   1.836e-01   0.000e+00   0.000e+00
   2.587e-01   0.000e+00   0.000e+00
   3.066e-01   0.000e+00   0.000e+00
   2.211e-01   0.000e+00   0.000e+00
   3.066e-01   0.000e+00   0.000e+00
   3.625e-01   0.000e+00   0.000e+00
   2.656e-01   0.000e+00   0.000e+00
   3.178e-01   0.000e+00   0.000e+00
   2.656e-01   0.000e+00   0.000e+00
   2.796e-01   0.000e+00   0.000e+00
   2.656e-01   0.000e+00   0.000e+00
   2.212e-01   0.000e+00   0.000e+00
   2.307e-01   0.000e+00   0.000e+00
   2.212e-01   0.000e+00   0.000e+00
   1.837e-01   0.000e+00   0.000e+00
   1.895e-01   0.000e+00   0.000e+00
   1.837e-01   0.000e+00   0.000e+00
   1.522e-01   0.000e+00   0.000e+00
   1.548e-01   0.000e+00   0.000e+00
   1.522e-01   0.000e+00   0.000e+00
   1.261e-01   0.000e+00   0.000e+00
   1.261e-01   0.000e+00   0.000e+00
   1.261e-01   0.000e+00   0.000e+00
   1.045e-01   0.000e+00   0.000e+00
   1.024e-01   0.000e+00   0.000e+00
   1.045e-01   0.000e+00   0.000e+00
   8.691e-02   0.000e+00   0.000e+00
   8.303e-02   0.000e+00   0.000e+00
   8.691e-02   0.000e+00   0.000e+00
   7.274e-02   0.000e+00   0.000e+00
   6.746e-02   0.000e+00   0.000e+00
   7.274e-02   0.000e+00   0.000e+00
   6.148e-02   0.000e+00   0.000e+00
   5.507e-02   0.000e+00   0.000e+00
   6.148e-02   0.000e+00   0.000e+00
   5.269e-02   0.000e+00   0.000e+00
   4.535e-02   0.000e+00   0.000e+00
   5.269e-02   0.000e+00   0.000e+00
   4.600e-02   0.000e+00   0.000e+00
   3.787e-02   0.000e+00   0.000e+00
   4.600e-02   0.000e+00   0.000e+00
   4.111e-02   0.000e+00   0.000e+00
   3.226e-02   0.000e+00   0.000e+00
   4.111e-02   0.000e+00   0.000e+00
   3.778e-02   0.000e+00   0.000e+00
   2.821e-02   0.000e+00   0.000e+00
   3.778e-02   0.000e+00   0.000e+00
   3.585e-02   0.000e+00   0.000e+00
   2.548e-02   0.000e+00   0.000e+00
   3.585e-02   0.000e+00   0.000e+00
   3.520e-02   0.000e+00   0.000e+00
   2.390e-02   0.000e+00   0.000e+00
   3.520e-02   0.000e+00   0.000e+00
   3.581e-02   0.000e+00   0.000e+00
   2.338e-02   0.000e+00   0.000e+00
   3.581e-02   0.000e+00   0.000e+00
   3.771e-02   0.000e+00   0.000e+00
   2.386e-02   0.000e+00   0.000e+00
   3.771e-02   0.000e+00   0.000e+00
   4.101e-02   0.000e+00   0.000e+00
   2.539e-02   0.000e+00   0.000e+00
   4.101e-02   0.000e+00   0.000e+00
   4.587e-02   0.000e+00   0.000e+00
   2.808e-02   0.000e+00   0.000e+00
   4.587e-02   0.000e+00   0.000e+00
   5.254e-02   0.000e+00   0.000e+00
   3.209e-02   0.000e+00   0.000e+00
   5.254e-02   0.000e+00   0.000e+00
   6.131e-02   0.000e+00   0.000e+00
   3.767e-02   0.000e+00   0.000e+00
   6.131e-02   0.000e+00   0.000e+00
   7.256e-02   0.000e+00   0.000e+00
   4.513e-02   0.000e+00   0.000e+00
   7.256e-02   0.000e+00   0.000e+00
   8.673e-02   0.000e+00   0.000e+00
   5.483e-02   0.000e+00   0.000e+00
   8.673e-02   0.000e+00   0.000e+00
   1.043e-01   0.000e+00   0.000e+00
   6.722e-02   0.000e+00   0.000e+00
   1.043e-01   0.000e+00   0.000e+00
   1.259e-01   0.000e+00   0.000e+00
   8.281e-02   0.000e+00   0.000e+00
   1.259e-01   0.000e+00   0.000e+00
   1.521e-01   0.000e+00   0.000e+00
   1.022e-01   0.000e+00   0.000e+00
   1.521e-01   0.000e+00   0.000e+00
   1.836e-01   0.000e+00   0.000e+00
   1.259e-01   0.000e+00   0.000e+00
   1.836e-01   0.000e+00   0.000e+00
   2.211e-01   0.000e+00   0.000e+00
   1.547e-01   0.000e+00   0.000e+00
   2.211e-01   0.000e+00   0.000e+00
   2.656e-01   0.000e+00   0.000e+00
   1.894e-01   0.000e+00   0.000e+00
   2.656e-01   0.000e+00   0.000e+00
   3.178e-01   0.000e+00   0.000e+00
   2.307e-01   0.000e+00   0.000e+00
   2.796e-01   0.000e+00   0.000e+00
   2.307e-01   0.000e+00   0.000e+00
   2.470e-01   0.000e+00   0.000e+00
   2.307e-01   0.000e+00   0.000e+00
   1.895e-01   0.000e+00   0.000e+00
   2.013e-01   0.000e+00   0.000e+00
   1.895e-01   0.000e+00   0.000e+00
   1.548e-01   0.000e+00   0.000e+00
   1.628e-01   0.000e+00   0.000e+00
   1.548e-01   0.000e+00   0.000e+00
   1.261e-01   0.000e+00   0.000e+00
   1.309e-01   0.000e+00   0.000e+00
   1.261e-01   0.000e+00   0.000e+00
   1.024e-01   0.000e+00   0.000e+00
   1.045e-01   0.000e+00   0.000e+00
   1.024e-01   0.000e+00   0.000e+00
   8.303e-02   0.000e+00   0.000e+00
   8.305e-02   0.000e+00   0.000e+00
   8.303e-02   0.000e+00   0.000e+00
   6.746e-02   0.000e+00   0.000e+00
   6.576e-02   0.000e+00   0.000e+00
   6.746e-02   0.000e+00   0.000e+00
   5.507e-02   0.000e+00   0.000e+00
   5.202e-02   0.000e+00   0.000e+00
   5.507e-02   0.000e+00   0.000e+00
   4.535e-02   0.000e+00   0.000e+00
   4.125e-02   0.000e+00   0.000e+00
   4.535e-02   0.000e+00   0.000e+00
   3.787e-02   0.000e+00   0.000e+00
   3.295e-02   0.000e+00   0.000e+00
   3.787e-02   0.000e+00   0.000e+00
   3.226e-02   0.000e+00   0.000e+00
   2.668e-02   0.000e+00   0.000e+00
   3.226e-02   0.000e+00   0.000e+00
   2.821e-02   0.000e+00   0.000e+00
   2.205e-02   0.000e+00   0.000e+00
   2.821e-02   0.000e+00   0.000e+00
   2.548e-02   0.000e+00   0.000e+00
   1.877e-02   0.000e+00   0.000e+00
   2.548e-02   0.000e+00   0.000e+00
   2.390e-02   0.000e+00   0.000e+00
   1.660e-02   0.000e+00   0.000e+00
   2.390e-02   0.000e+00   0.000e+00
   2.338e-02   0.000e+00   0.000e+00
   1.535e-02   0.000e+00   0.000e+00
   2.338e-02   0.000e+00   0.000e+00
   2.386e-02   0.000e+00   0.000e+00
   1.493e-02   0.000e+00   0.000e+00
   2.386e-02   0.000e+00   0.000e+00
   2.539e-02   0.000e+00   0.000e+00
   1.530e-02   0.000e+00   0.000e+00
   2.539e-02   0.000e+00   0.000e+00
   2.808e-02   0.000e+00   0.000e+00
   1.649e-02   0.000e+00   0.000e+00
   2.808e-02   0.000e+00   0.000e+00
   3.209e-02   0.000e+00   0.000e+00
   1.861e-02   0.000e+00   0.000e+00
   3.209e-02   0.000e+00   0.000e+00
   3.767e-02   0.000e+00   0.000e+00
   2.184e-02   0.000e+00   0.000e+00
   3.767e-02   0.000e+00   0.000e+00
   4.513e-02   0.000e+00   0.000e+00
   2.642e-02   0.000e+00   0.000e+00
   4.513e-02   0.000e+00   0.000e+00
   5.483e-02   0.000e+00   0.000e+00
   3.266e-02   0.000e+00   0.000e+00
   5.483e-02   0.000e+00   0.000e+00
   6.722e-02   0.000e+00   0.000e+00
   4.094e-02   0.000e+00   0.000e+00
   6.722e-02   0.000e+00   0.000e+00
   8.281e-02   0.000e+00   0.000e+00
   5.171e-02   0.000e+00   0.000e+00
   8.281e-02   0.000e+00   0.000e+00
   1.022e-01   0.000e+00   0.000e+00
   6.547e-02   0.000e+00   0.000e+00
   1.022e-01   0.000e+00   0.000e+00
   1.259e-01   0.000e+00   0.000e+00
   8.279e-02   0.000e+00   0.000e+00
   1.259e-01   0.000e+00   0.000e+00
   1.547e-01   0.000e+00   0.000e+00
   1.043e-01   0.000e+00   0.000e+00
   1.547e-01   0.000e+00   0.000e+00
   1.894e-01   0.000e+00   0.000e+00
   1.307e-01   0.000e+00   0.000e+00
   1.894e-01   0.000e+00   0.000e+00
   2.307e-01   0.000e+00   0.000e+00
   1.627e-01   0.000e+00   0.000e+00
   2.307e-01   0.000e+00   0.000e+00
   2.796e-01   0.000e+00   0.000e+00
   2.012e-01   0.000e+00   0.000e+00
   2.470e-01   0.000e+00   0.000e+00
   2.013e-01   0.000e+00   0.000e+00
   2.196e-01   0.000e+00   0.000e+00
   2.013e-01   0.000e+00   0.000e+00
   1.628e-01   0.000e+00   0.000e+00
   1.766e-01   0.000e+00   0.000e+00
   1.628e-01   0.000e+00   0.000e+00
   1.309e-01   0.000e+00   0.000e+00
   1.407e-01   0.000e+00   0.000e+00
   1.309e-01   0.000e+00   0.000e+00
   1.045e-01   0.000e+00   0.000e+00
   1.111e-01   0.000e+00   0.000e+00
   1.045e-01   0.000e+00   0.000e+00
   8.305e-02   0.000e+00   0.000e+00
   8.696e-02   0.000e+00   0.000e+00
   8.305e-02   0.000e+00   0.000e+00
   6.576e-02   0.000e+00   0.000e+00
   6.751e-02   0.000e+00   0.000e+00
   6.576e-02   0.000e+00   0.000e+00
   5.202e-02   0.000e+00   0.000e+00
   5.205e-02   0.000e+00   0.000e+00
   5.202e-02   0.000e+00   0.000e+00
   4.125e-02   0.000e+00   0.000e+00
   3.997e-02   0.000e+00   0.000e+00
   4.125e-02   0.000e+00   0.000e+00
   3.295e-02   0.000e+00   0.000e+00
   3.067e-02   0.000e+00   0.000e+00
   3.295e-02   0.000e+00   0.000e+00
   2.668e-02   0.000e+00   0.000e+00
   2.366e-02   0.000e+00   0.000e+00
   2.668e-02   0.000e+00   0.000e+00
   2.205e-02   0.000e+00   0.000e+00
   1.849e-02   0.000e+00   0.000e+00
   2.205e-02   0.000e+00   0.000e+00
   1.877e-02   0.000e+00   0.000e+00
   1.476e-02   0.000e+00   0.000e+00
   1.877e-02   0.000e+00   0.000e+00
   1.660e-02   0.000e+00   0.000e+00
   1.218e-02   0.000e+00   0.000e+00
   1.660e-02   0.000e+00   0.000e+00
   1.535e-02   0.000e+00   0.000e+00
   1.052e-02   0.000e+00   0.000e+00
   1.535e-02   0.000e+00   0.000e+00
   1.493e-02   0.000e+00   0.000e+00
   9.578e-03   0.000e+00   0.000e+00
   1.493e-02   0.000e+00   0.000e+00
   1.530e-02   0.000e+00   0.000e+00
   9.256e-03   0.000e+00   0.000e+00
   1.530e-02   0.000e+00   0.000e+00
   1.649e-02   0.000e+00   0.000e+00
   9.512e-03   0.000e+00   0.000e+00
   1.649e-02   0.000e+00   0.000e+00
   1.861e-02   0.000e+00   0.000e+00
   1.038e-02   0.000e+00   0.000e+00
   1.861e-02   0.000e+00   0.000e+00
   2.184e-02   0.000e+00   0.000e+00
   1.198e-02   0.000e+00   0.000e+00
   2.184e-02   0.000e+00   0.000e+00
   2.642e-02   0.000e+00   0.000e+00
   1.450e-02   0.000e+00   0.000e+00
   2.642e-02   0.000e+00   0.000e+00
   3.266e-02   0.000e+00   0.000e+00
   1.817e-02   0.000e+00   0.000e+00
   3.266e-02   0.000e+00   0.000e+00
   4.094e-02   0.000e+00   0.000e+00
   2.330e-02   0.000e+00   0.000e+00
   4.094e-02   0.000e+00   0.000e+00
   5.171e-02   0.000e+00   0.000e+00
   3.027e-02   0.000e+00   0.000e+00
   5.171e-02   0.000e+00   0.000e+00
   6.547e-02   0.000e+00   0.000e+00
   3.956e-02   0.000e+00   0.000e+00
   6.547e-02   0.000e+00   0.000e+00
   8.279e-02   0.000e+00   0.000e+00
   5.167e-02   0.000e+00   0.000e+00
   8.279e-02   0.000e+00   0.000e+00
   1.043e-01   0.000e+00   0.000e+00
   6.717e-02   0.000e+00   0.000e+00
   1.043e-01   0.000e+00   0.000e+00
   1.307e-01   0.000e+00   0.000e+00
   8.668e-02   0.000e+00   0.000e+00
   1.307e-01   0.000e+00   0.000e+00
   1.627e-01   0.000e+00   0.000e+00
   1.109e-01   0.000e+00   0.000e+00
   1.627e-01   0.000e+00   0.000e+00
   2.012e-01   0.000e+00   0.000e+00
   1.406e-01   0.000e+00   0.000e+00
   2.012e-01   0.000e+00   0.000e+00
   2.470e-01   0.000e+00   0.000e+00
   1.765e-01   0.000e+00   0.000e+00
   2.196e-01   0.000e+00   0.000e+00
   1.766e-01   0.000e+00   0.000e+00
   1.968e-01   0.000e+00   0.000e+00
   1.766e-01   0.000e+00   0.000e+00
   1.407e-01   0.000e+00   0.000e+00
   1.562e-01   0.000e+00   0.000e+00
   1.407e-01   0.000e+00   0.000e+00
   1.111e-01   0.000e+00   0.000e+00
   1.225e-01   0.000e+00   0.000e+00
   1.111e-01   0.000e+00   0.000e+00
   8.696e-02   0.000e+00   0.000e+00
   9.503e-02   0.000e+00   0.000e+00
   8.696e-02   0.000e+00   0.000e+00
   6.751e-02   0.000e+00   0.000e+00
   7.283e-02   0.000e+00   0.000e+00
   6.751e-02   0.000e+00   0.000e+00
   5.205e-02   0.000e+00   0.000e+00
   5.516e-02   0.000e+00   0.000e+00
   5.205e-02   0.000e+00   0.000e+00
   3.997e-02   0.000e+00   0.000e+00
   4.134e-02   0.000e+00   0.000e+00
   3.997e-02   0.000e+00   0.000e+00
   3.067e-02   0.000e+00   0.000e+00
   3.073e-02   0.000e+00   0.000e+00
   3.067e-02   0.000e+00   0.000e+00
   2.366e-02   0.000e+00   0.000e+00
   2.277e-02   0.000e+00   0.000e+00
   2.366e-02   0.000e+00   0.000e+00
   1.849e-02   0.000e+00   0.000e+00
   1.694e-02   0.000e+00   0.000e+00
   1.849e-02   0.000e+00   0.000e+00
   1.646e-02   0.000e+00   0.000e+00
   1.535e-02   0.000e+00   0.000e+00
   1.476e-02   0.000e+00   0.000e+00
   1.354e-02   0.000e+00   0.000e+00
   1.646e-02   0.000e+00   0.000e+00
   1.354e-02   0.000e+00   0.000e+00
   1.535e-02   0.000e+00   0.000e+00
   1.646e-02   0.000e+00   0.000e+00
   3.871e-01   0.000e+00   0.000e+00
   4.057e-01   0.000e+00   0.000e+00
   3.967e-01   0.000e+00   0.000e+00
   1.399e-02   0.000e+00   0.000e+00
   1.332e-02   0.000e+00   0.000e+00
   1.535e-02   0.000e+00   0.000e+00
   1.354e-02   0.000e+00   0.000e+00
   1.476e-02   0.000e+00   0.000e+00
   1.334e-02   0.000e+00   0.000e+00
   1.203e-02   0.000e+00   0.000e+00
   1.218e-02   0.000e+00   0.000e+00
   1.078e-02   0.000e+00   0.000e+00
   1.334e-02   0.000e+00   0.000e+00
   1.078e-02   0.000e+00   0.000e+00
   1.203e-02   0.000e+00   0.000e+00
   1.334e-02   0.000e+00   0.000e+00
   3.399e-01   0.000e+00   0.000e+00
   3.729e-01   0.000e+00   0.000e+00
   3.524e-01   0.000e+00   0.000e+00
   1.172e-02   0.000e+00   0.000e+00
   1.047e-02   0.000e+00   0.000e+00
   1.203e-02   0.000e+00   0.000e+00
   1.078e-02   0.000e+00   0.000e+00
   1.218e-02   0.000e+00   0.000e+00
   1.125e-02   0.000e+00   0.000e+00
   9.777e-03   0.000e+00   0.000e+00
   1.052e-02   0.000e+00   0.000e+00
   8.974e-03   0.000e+00   0.000e+00
   1.125e-02   0.000e+00   0.000e+00
   8.974e-03   0.000e+00   0.000e+00
   9.777e-03   0.000e+00   0.000e+00
   1.125e-02   0.000e+00   0.000e+00
   3.031e-01   0.000e+00   0.000e+00
   3.103e-01   0.000e+00   0.000e+00
   3.058e-01   0.000e+00   0.000e+00
   8.220e-03   0.000e+00   0.000e+00
   8.008e-03   0.000e+00   0.000e+00
   9.777e-03   0.000e+00   0.000e+00
   8.974e-03   0.000e+00   0.000e+00
   1.052e-02   0.000e+00   0.000e+00
   9.578e-03   0.000e+00   0.000e+00
   6.695e-03   0.000e+00   0.000e+00
   9.578e-03   0.000e+00   0.000e+00
   9.256e-03   0.000e+00   0.000e+00
   6.049e-03   0.000e+00   0.000e+00
   9.256e-03   0.000e+00   0.000e+00
   9.512e-03   0.000e+00   0.000e+00
   5.820e-03   0.000e+00   0.000e+00
   9.512e-03   0.000e+00   0.000e+00
   1.038e-02   0.000e+00   0.000e+00
   5.971e-03   0.000e+00   0.000e+00
   1.038e-02   0.000e+00   0.000e+00
   1.198e-02   0.000e+00   0.000e+00
   6.541e-03   0.000e+00   0.000e+00
   1.198e-02   0.000e+00   0.000e+00
   1.450e-02   0.000e+00   0.000e+00
   7.655e-03   0.000e+00   0.000e+00
   1.450e-02   0.000e+00   0.000e+00
   1.817e-02   0.000e+00   0.000e+00
   9.513e-03   0.000e+00   0.000e+00
   1.817e-02   0.000e+00   0.000e+00
   2.052e-02   0.000e+00   0.000e+00
   1.499e-02   0.000e+00   0.000e+00
   2.330e-02   0.000e+00   0.000e+00
   1.710e-02   0.000e+00   0.000e+00
   2.052e-02   0.000e+00   0.000e+00
   1.710e-02   0.000e+00   0.000e+00
   1.499e-02   0.000e+00   0.000e+00
   2.052e-02   0.000e+00   0.000e+00
   3.867e-01   0.000e+00   0.000e+00
   4.163e-01   0.000e+00   0.000e+00
   4.450e-01   0.000e+00   0.000e+00
   1.439e-02   0.000e+00   0.000e+00
   1.653e-02   0.000e+00   0.000e+00
   1.499e-02   0.000e+00   0.000e+00
   1.710e-02   0.000e+00   0.000e+00
   2.330e-02   0.000e+00   0.000e+00
   2.652e-02   0.000e+00   0.000e+00
   1.960e-02   0.000e+00   0.000e+00
   3.027e-02   0.000e+00   0.000e+00
   2.253e-02   0.000e+00   0.000e+00
   2.652e-02   0.000e+00   0.000e+00
   2.253e-02   0.000e+00   0.000e+00
   1.960e-02   0.000e+00   0.000e+00
   2.652e-02   0.000e+00   0.000e+00
   4.442e-01   0.000e+00   0.000e+00
   4.721e-01   0.000e+00   0.000e+00
   4.787e-01   0.000e+00   0.000e+00
   1.874e-02   0.000e+00   0.000e+00
   1.928e-02   0.000e+00   0.000e+00
   1.960e-02   0.000e+00   0.000e+00
   2.253e-02   0.000e+00   0.000e+00
   3.027e-02   0.000e+00   0.000e+00
   3.956e-02   0.000e+00   0.000e+00
   2.224e-02   0.000e+00   0.000e+00
   3.956e-02   0.000e+00   0.000e+00
   5.167e-02   0.000e+00   0.000e+00
   3.020e-02   0.000e+00   0.000e+00
   5.167e-02   0.000e+00   0.000e+00
   6.717e-02   0.000e+00   0.000e+00
   4.085e-02   0.000e+00   0.000e+00
   6.717e-02   0.000e+00   0.000e+00
   8.668e-02   0.000e+00   0.000e+00
   5.473e-02   0.000e+00   0.000e+00
   8.668e-02   0.000e+00   0.000e+00
   1.109e-01   0.000e+00   0.000e+00
   7.248e-02   0.000e+00   0.000e+00
   1.109e-01   0.000e+00   0.000e+00
   1.406e-01   0.000e+00   0.000e+00
   9.477e-02   0.000e+00   0.000e+00
   1.406e-01   0.000e+00   0.000e+00
   1.765e-01   0.000e+00   0.000e+00
   1.224e-01   0.000e+00   0.000e+00
   1.765e-01   0.000e+00   0.000e+00
   2.196e-01   0.000e+00   0.000e+00
   1.561e-01   0.000e+00   0.000e+00
   1.968e-01   0.000e+00   0.000e+00
   1.562e-01   0.000e+00   0.000e+00
   1.780e-01   0.000e+00   0.000e+00
   1.562e-01   0.000e+00   0.000e+00
   1.225e-01   0.000e+00   0.000e+00
   1.395e-01   0.000e+00   0.000e+00
   1.225e-01   0.000e+00   0.000e+00
   9.503e-02   0.000e+00   0.000e+00
   1.078e-01   0.000e+00   0.000e+00
   9.503e-02   0.000e+00   0.000e+00
   7.283e-02   0.000e+00   0.000e+00
   8.212e-02   0.000e+00   0.000e+00
   7.283e-02   0.000e+00   0.000e+00
   5.516e-02   0.000e+00   0.000e+00
   6.161e-02   0.000e+00   0.000e+00
   5.516e-02   0.000e+00   0.000e+00
   4.134e-02   0.000e+00   0.000e+00
   4.550e-02   0.000e+00   0.000e+00
   4.134e-02   0.000e+00   0.000e+00
   3.073e-02   0.000e+00   0.000e+00
   3.311e-02   0.000e+00   0.000e+00
   3.073e-02   0.000e+00   0.000e+00
   2.277e-02   0.000e+00   0.000e+00
   2.382e-02   0.000e+00   0.000e+00
   2.277e-02   0.000e+00   0.000e+00
   1.694e-02   0.000e+00   0.000e+00
   1.704e-02   0.000e+00   0.000e+00
   1.694e-02   0.000e+00   0.000e+00
   1.467e-02   0.000e+00   0.000e+00
   1.438e-02   0.000e+00   0.000e+00
   3.871e-01   0.000e+00   0.000e+00
   3.794e-01   0.000e+00   0.000e+00
   4.022e-01   0.000e+00   0.000e+00
   3.879e-01   0.000e+00   0.000e+00
   1.379e-02   0.000e+00   0.000e+00
   1.289e-02   0.000e+00   0.000e+00
   1.467e-02   0.000e+00   0.000e+00
   3.794e-01   0.000e+00   0.000e+00
   3.879e-01   0.000e+00   0.000e+00
   3.827e-01   0.000e+00   0.000e+00
   1.289e-02   0.000e+00   0.000e+00
   1.257e-02   0.000e+00   0.000e+00
   1.438e-02   0.000e+00   0.000e+00
   1.467e-02   0.000e+00   0.000e+00
   3.827e-01   0.000e+00   0.000e+00
   3.787e-01   0.000e+00   0.000e+00
   3.794e-01   0.000e+00   0.000e+00
   1.227e-02   0.000e+00   0.000e+00
   1.438e-02   0.000e+00   0.000e+00
   1.257e-02   0.000e+00   0.000e+00
   1.233e-02   0.000e+00   0.000e+00
   3.871e-01   0.000e+00   0.000e+00
   3.399e-01   0.000e+00   0.000e+00
   3.191e-01   0.000e+00   0.000e+00
   3.399e-01   0.000e+00   0.000e+00
   3.031e-01   0.000e+00   0.000e+00
   2.718e-01   0.000e+00   0.000e+00
   3.031e-01   0.000e+00   0.000e+00
   2.980e-01   0.000e+00   0.000e+00
   2.830e-01   0.000e+00   0.000e+00
   2.677e-01   0.000e+00   0.000e+00
   7.649e-03   0.000e+00   0.000e+00
   6.993e-03   0.000e+00   0.000e+00
   7.213e-03   0.000e+00   0.000e+00
   2.607e-01   0.000e+00   0.000e+00
   2.736e-01   0.000e+00   0.000e+00
   2.533e-01   0.000e+00   0.000e+00
   6.695e-03   0.000e+00   0.000e+00
   6.131e-03   0.000e+00   0.000e+00
   6.611e-03   0.000e+00   0.000e+00
   7.213e-03   0.000e+00   0.000e+00
   2.533e-01   0.000e+00   0.000e+00
   2.677e-01   0.000e+00   0.000e+00
   2.830e-01   0.000e+00   0.000e+00
   2.736e-01   0.000e+00   0.000e+00
   6.993e-03   0.000e+00   0.000e+00
   6.611e-03   0.000e+00   0.000e+00
   7.213e-03   0.000e+00   0.000e+00
   2.349e-01   0.000e+00   0.000e+00
   2.677e-01   0.000e+00   0.000e+00
   2.533e-01   0.000e+00   0.000e+00
   6.695e-03   0.000e+00   0.000e+00
   6.312e-03   0.000e+00   0.000e+00
   5.483e-03   0.000e+00   0.000e+00
   6.049e-03   0.000e+00   0.000e+00
   5.181e-03   0.000e+00   0.000e+00
   6.312e-03   0.000e+00   0.000e+00
   5.181e-03   0.000e+00   0.000e+00
   5.483e-03   0.000e+00   0.000e+00
   6.312e-03   0.000e+00   0.000e+00
   2.086e-01   0.000e+00   0.000e+00
   2.350e-01   0.000e+00   0.000e+00
   2.182e-01   0.000e+00   0.000e+00
   5.299e-03   0.000e+00   0.000e+00
   4.852e-03   0.000e+00   0.000e+00
   5.483e-03   0.000e+00   0.000e+00
   5.181e-03   0.000e+00   0.000e+00
   6.049e-03   0.000e+00   0.000e+00
   5.820e-03   0.000e+00   0.000e+00
   4.303e-03   0.000e+00   0.000e+00
   5.820e-03   0.000e+00   0.000e+00
   5.971e-03   0.000e+00   0.000e+00
   4.168e-03   0.000e+00   0.000e+00
   5.971e-03   0.000e+00   0.000e+00
   6.541e-03   0.000e+00   0.000e+00
   4.213e-03   0.000e+00   0.000e+00
   6.541e-03   0.000e+00   0.000e+00
   7.655e-03   0.000e+00   0.000e+00
   4.489e-03   0.000e+00   0.000e+00
   7.655e-03   0.000e+00   0.000e+00
   8.474e-03   0.000e+00   0.000e+00
   6.199e-03   0.000e+00   0.000e+00
   3.257e-01   0.000e+00   0.000e+00
   2.927e-01   0.000e+00   0.000e+00
   2.845e-01   0.000e+00   0.000e+00
   9.513e-03   0.000e+00   0.000e+00
   8.785e-03   0.000e+00   0.000e+00
   7.214e-03   0.000e+00   0.000e+00
   8.474e-03   0.000e+00   0.000e+00
   2.845e-01   0.000e+00   0.000e+00
   2.927e-01   0.000e+00   0.000e+00
   2.792e-01   0.000e+00   0.000e+00
   7.214e-03   0.000e+00   0.000e+00
   6.647e-03   0.000e+00   0.000e+00
   6.199e-03   0.000e+00   0.000e+00
   8.474e-03   0.000e+00   0.000e+00
   2.347e-01   0.000e+00   0.000e+00
   2.792e-01   0.000e+00   0.000e+00
   2.471e-01   0.000e+00   0.000e+00
   2.845e-01   0.000e+00   0.000e+00
   6.647e-03   0.000e+00   0.000e+00
   5.502e-03   0.000e+00   0.000e+00
   6.199e-03   0.000e+00   0.000e+00
   3.423e-01   0.000e+00   0.000e+00
   3.369e-01   0.000e+00   0.000e+00
   3.618e-01   0.000e+00   0.000e+00
   3.041e-01   0.000e+00   0.000e+00
   9.513e-03   0.000e+00   0.000e+00
   9.662e-03   0.000e+00   0.000e+00
   9.373e-03   0.000e+00   0.000e+00
   3.867e-01   0.000e+00   0.000e+00
   3.263e-01   0.000e+00   0.000e+00
   3.618e-01   0.000e+00   0.000e+00
   3.263e-01   0.000e+00   0.000e+00
   3.041e-01   0.000e+00   0.000e+00
   3.618e-01   0.000e+00   0.000e+00
   2.712e-01   0.000e+00   0.000e+00
   3.041e-01   0.000e+00   0.000e+00
   3.263e-01   0.000e+00   0.000e+00
   3.867e-01   0.000e+00   0.000e+00
   4.442e-01   0.000e+00   0.000e+00
   3.184e-01   0.000e+00   0.000e+00
   4.442e-01   0.000e+00   0.000e+00
   4.770e-01   0.000e+00   0.000e+00
   4.088e-01   0.000e+00   0.000e+00
   4.704e-01   0.000e+00   0.000e+00
   4.789e-01   0.000e+00   0.000e+00
   4.416e-01   0.000e+00   0.000e+00
   4.770e-01   0.000e+00   0.000e+00
   2.224e-02   0.000e+00   0.000e+00
   1.853e-02   0.000e+00   0.000e+00
   1.928e-02   0.000e+00   0.000e+00
   4.416e-01   0.000e+00   0.000e+00
   4.088e-01   0.000e+00   0.000e+00
   4.770e-01   0.000e+00   0.000e+00
   3.760e-01   0.000e+00   0.000e+00
   4.088e-01   0.000e+00   0.000e+00
   4.416e-01   0.000e+00   0.000e+00
   2.224e-02   0.000e+00   0.000e+00
   3.020e-02   0.000e+00   0.000e+00
   1.631e-02   0.000e+00   0.000e+00
   3.020e-02   0.000e+00   0.000e+00
   4.085e-02   0.000e+00   0.000e+00
   2.312e-02   0.000e+00   0.000e+00
   4.085e-02   0.000e+00   0.000e+00
   5.473e-02   0.000e+00   0.000e+00
   3.250e-02   0.000e+00   0.000e+00
   5.473e-02   0.000e+00   0.000e+00
   7.248e-02   0.000e+00   0.000e+00
   4.498e-02   0.000e+00   0.000e+00
   7.248e-02   0.000e+00   0.000e+00
   9.477e-02   0.000e+00   0.000e+00
   6.119e-02   0.000e+00   0.000e+00
   9.477e-02   0.000e+00   0.000e+00
   1.224e-01   0.000e+00   0.000e+00
   8.181e-02   0.000e+00   0.000e+00
   1.224e-01   0.000e+00   0.000e+00
   1.561e-01   0.000e+00   0.000e+00
   1.076e-01   0.000e+00   0.000e+00
   1.561e-01   0.000e+00   0.000e+00
   1.968e-01   0.000e+00   0.000e+00
   1.394e-01   0.000e+00   0.000e+00
   1.780e-01   0.000e+00   0.000e+00
   1.395e-01   0.000e+00   0.000e+00
   1.628e-01   0.000e+00   0.000e+00
   1.395e-01   0.000e+00   0.000e+00
   1.078e-01   0.000e+00   0.000e+00
   1.261e-01   0.000e+00   0.000e+00
   1.078e-01   0.000e+00   0.000e+00
   8.212e-02   0.000e+00   0.000e+00
   9.607e-02   0.000e+00   0.000e+00
   8.212e-02   0.000e+00   0.000e+00
   6.161e-02   0.000e+00   0.000e+00
   7.194e-02   0.000e+00   0.000e+00
   6.161e-02   0.000e+00   0.000e+00
   4.550e-02   0.000e+00   0.000e+00
   5.286e-02   0.000e+00   0.000e+00
   4.550e-02   0.000e+00   0.000e+00
   3.311e-02   0.000e+00   0.000e+00
   3.809e-02   0.000e+00   0.000e+00
   3.311e-02   0.000e+00   0.000e+00
   2.382e-02   0.000e+00   0.000e+00
   2.693e-02   0.000e+00   0.000e+00
   2.382e-02   0.000e+00   0.000e+00
   1.704e-02   0.000e+00   0.000e+00
   1.877e-02   0.000e+00   0.000e+00
   1.704e-02   0.000e+00   0.000e+00
   1.227e-02   0.000e+00   0.000e+00
   1.303e-02   0.000e+00   0.000e+00
   3.554e-01   0.000e+00   0.000e+00
   3.462e-01   0.000e+00   0.000e+00
   3.467e-01   0.000e+00   0.000e+00
   1.227e-02   0.000e+00   0.000e+00
   1.099e-02   0.000e+00   0.000e+00
   1.049e-02   0.000e+00   0.000e+00
   1.057e-02   0.000e+00   0.000e+00
   3.191e-01   0.000e+00   0.000e+00
   3.167e-01   0.000e+00   0.000e+00
   3.467e-01   0.000e+00   0.000e+00
   3.167e-01   0.000e+00   0.000e+00
   3.462e-01   0.000e+00   0.000e+00
   3.250e-01   0.000e+00   0.000e+00
   3.467e-01   0.000e+00   0.000e+00
   1.049e-02   0.000e+00   0.000e+00
   9.421e-03   0.000e+00   0.000e+00
   1.057e-02   0.000e+00   0.000e+00
   3.250e-01   0.000e+00   0.000e+00
   3.169e-01   0.000e+00   0.000e+00
   3.167e-01   0.000e+00   0.000e+00
   9.211e-03   0.000e+00   0.000e+00
   1.057e-02   0.000e+00   0.000e+00
   9.421e-03   0.000e+00   0.000e+00
   9.045e-03   0.000e+00   0.000e+00
   3.191e-01   0.000e+00   0.000e+00
   2.718e-01   0.000e+00   0.000e+00
   2.617e-01   0.000e+00   0.000e+00
   2.718e-01   0.000e+00   0.000e+00
   2.349e-01   0.000e+00   0.000e+00
   2.142e-01   0.000e+00   0.000e+00
   2.349e-01   0.000e+00   0.000e+00
   2.086e-01   0.000e+00   0.000e+00
   1.771e-01   0.000e+00   0.000e+00
   2.086e-01   0.000e+00   0.000e+00
   2.005e-01   0.000e+00   0.000e+00
   1.980e-01   0.000e+00   0.000e+00
   1.784e-01   0.000e+00   0.000e+00
   4.476e-03   0.000e+00   0.000e+00
   4.429e-03   0.000e+00   0.000e+00
   4.451e-03   0.000e+00   0.000e+00
   1.787e-01   0.000e+00   0.000e+00
   1.955e-01   0.000e+00   0.000e+00
   1.692e-01   0.000e+00   0.000e+00
   4.303e-03   0.000e+00   0.000e+00
   4.135e-03   0.000e+00   0.000e+00
   4.383e-03   0.000e+00   0.000e+00
   4.451e-03   0.000e+00   0.000e+00
   1.692e-01   0.000e+00   0.000e+00
   1.784e-01   0.000e+00   0.000e+00
   1.980e-01   0.000e+00   0.000e+00
   1.955e-01   0.000e+00   0.000e+00
   4.429e-03   0.000e+00   0.000e+00
   4.383e-03   0.000e+00   0.000e+00
   4.451e-03   0.000e+00   0.000e+00
   1.506e-01   0.000e+00   0.000e+00
   1.784e-01   0.000e+00   0.000e+00
   1.692e-01   0.000e+00   0.000e+00
   4.303e-03   0.000e+00   0.000e+00
   4.211e-03   0.000e+00   0.000e+00
   3.978e-03   0.000e+00   0.000e+00
   4.168e-03   0.000e+00   0.000e+00
   3.921e-03   0.000e+00   0.000e+00
   4.211e-03   0.000e+00   0.000e+00
   3.921e-03   0.000e+00   0.000e+00
   3.978e-03   0.000e+00   0.000e+00
   4.211e-03   0.000e+00   0.000e+00
   1.350e-01   0.000e+00   0.000e+00
   1.560e-01   0.000e+00   0.000e+00
   1.427e-01   0.000e+00   0.000e+00
   3.949e-03   0.000e+00   0.000e+00
   3.926e-03   0.000e+00   0.000e+00
   3.978e-03   0.000e+00   0.000e+00
   3.921e-03   0.000e+00   0.000e+00
   4.168e-03   0.000e+00   0.000e+00
   4.213e-03   0.000e+00   0.000e+00
   3.930e-03   0.000e+00   0.000e+00
   4.213e-03   0.000e+00   0.000e+00
   4.489e-03   0.000e+00   0.000e+00
   3.861e-03   0.000e+00   0.000e+00
   4.489e-03   0.000e+00   0.000e+00
   4.753e-03   0.000e+00   0.000e+00
   4.005e-03   0.000e+00   0.000e+00
   2.347e-01   0.000e+00   0.000e+00
   1.901e-01   0.000e+00   0.000e+00
   2.287e-01   0.000e+00   0.000e+00
   2.010e-01   0.000e+00   0.000e+00
   4.972e-03   0.000e+00   0.000e+00
   4.347e-03   0.000e+00   0.000e+00
   4.753e-03   0.000e+00   0.000e+00
   1.901e-01   0.000e+00   0.000e+00
   2.010e-01   0.000e+00   0.000e+00
   1.860e-01   0.000e+00   0.000e+00
   4.347e-03   0.000e+00   0.000e+00
   4.100e-03   0.000e+00   0.000e+00
   4.005e-03   0.000e+00   0.000e+00
   4.753e-03   0.000e+00   0.000e+00
   1.507e-01   0.000e+00   0.000e+00
   1.860e-01   0.000e+00   0.000e+00
   1.556e-01   0.000e+00   0.000e+00
   1.901e-01   0.000e+00   0.000e+00
   4.100e-03   0.000e+00   0.000e+00
   3.835e-03   0.000e+00   0.000e+00
   4.005e-03   0.000e+00   0.000e+00
   2.347e-01   0.000e+00   0.000e+00
   2.712e-01   0.000e+00   0.000e+00
   1.767e-01   0.000e+00   0.000e+00
   2.712e-01   0.000e+00   0.000e+00
   3.184e-01   0.000e+00   0.000e+00
   2.133e-01   0.000e+00   0.000e+00
   3.184e-01   0.000e+00   0.000e+00
   3.760e-01   0.000e+00   0.000e+00
   2.605e-01   0.000e+00   0.000e+00
   3.760e-01   0.000e+00   0.000e+00
   4.088e-01   0.000e+00   0.000e+00
   3.458e-01   0.000e+00   0.000e+00
   4.284e-01   0.000e+00   0.000e+00
   4.358e-01   0.000e+00   0.000e+00
   3.786e-01   0.000e+00   0.000e+00
   4.088e-01   0.000e+00   0.000e+00
   1.631e-02   0.000e+00   0.000e+00
   1.510e-02   0.000e+00   0.000e+00
   1.568e-02   0.000e+00   0.000e+00
   3.786e-01   0.000e+00   0.000e+00
   3.458e-01   0.000e+00   0.000e+00
   4.088e-01   0.000e+00   0.000e+00
   3.182e-01   0.000e+00   0.000e+00
   3.458e-01   0.000e+00   0.000e+00
   3.786e-01   0.000e+00   0.000e+00
   1.631e-02   0.000e+00   0.000e+00
   2.312e-02   0.000e+00   0.000e+00
   1.203e-02   0.000e+00   0.000e+00
   2.312e-02   0.000e+00   0.000e+00
   3.250e-02   0.000e+00   0.000e+00
   1.788e-02   0.000e+00   0.000e+00
   3.250e-02   0.000e+00   0.000e+00
   4.498e-02   0.000e+00   0.000e+00
   2.617e-02   0.000e+00   0.000e+00
   4.498e-02   0.000e+00   0.000e+00
   6.119e-02   0.000e+00   0.000e+00
   3.746e-02   0.000e+00   0.000e+00
   6.119e-02   0.000e+00   0.000e+00
   8.181e-02   0.000e+00   0.000e+00
   5.237e-02   0.000e+00   0.000e+00
   8.181e-02   0.000e+00   0.000e+00
   1.076e-01   0.000e+00   0.000e+00
   7.157e-02   0.000e+00   0.000e+00
   1.076e-01   0.000e+00   0.000e+00
   1.394e-01   0.000e+00   0.000e+00
   9.583e-02   0.000e+00   0.000e+00
   1.394e-01   0.000e+00   0.000e+00
   1.780e-01   0.000e+00   0.000e+00
   1.259e-01   0.000e+00   0.000e+00
   1.628e-01   0.000e+00   0.000e+00
   1.261e-01   0.000e+00   0.000e+00
   1.509e-01   0.000e+00   0.000e+00
   1.261e-01   0.000e+00   0.000e+00
   9.607e-02   0.000e+00   0.000e+00
   1.156e-01   0.000e+00   0.000e+00
   9.607e-02   0.000e+00   0.000e+00
   7.194e-02   0.000e+00   0.000e+00
   8.697e-02   0.000e+00   0.000e+00
   7.194e-02   0.000e+00   0.000e+00
   5.286e-02   0.000e+00   0.000e+00
   6.412e-02   0.000e+00   0.000e+00
   5.286e-02   0.000e+00   0.000e+00
   3.809e-02   0.000e+00   0.000e+00
   4.622e-02   0.000e+00   0.000e+00
   3.809e-02   0.000e+00   0.000e+00
   2.693e-02   0.000e+00   0.000e+00
   3.255e-02   0.000e+00   0.000e+00
   2.693e-02   0.000e+00   0.000e+00
   1.877e-02   0.000e+00   0.000e+00
   2.241e-02   0.000e+00   0.000e+00
   1.877e-02   0.000e+00   0.000e+00
   1.303e-02   0.000e+00   0.000e+00
   1.520e-02   0.000e+00   0.000e+00
   1.303e-02   0.000e+00   0.000e+00
   9.211e-03   0.000e+00   0.000e+00
   1.035e-02   0.000e+00   0.000e+00
   2.929e-01   0.000e+00   0.000e+00
   2.896e-01   0.000e+00   0.000e+00
   2.893e-01   0.000e+00   0.000e+00
   9.211e-03   0.000e+00   0.000e+00
   8.022e-03   0.000e+00   0.000e+00
   7.896e-03   0.000e+00   0.000e+00
   8.158e-03   0.000e+00   0.000e+00
   2.617e-01   0.000e+00   0.000e+00
   2.640e-01   0.000e+00   0.000e+00
   2.778e-01   0.000e+00   0.000e+00
   2.893e-01   0.000e+00   0.000e+00
   7.000e-03   0.000e+00   0.000e+00
   7.459e-03   0.000e+00   0.000e+00
   7.028e-03   0.000e+00   0.000e+00
   2.896e-01   0.000e+00   0.000e+00
   2.778e-01   0.000e+00   0.000e+00
   2.893e-01   0.000e+00   0.000e+00
   7.028e-03   0.000e+00   0.000e+00
   8.158e-03   0.000e+00   0.000e+00
   7.896e-03   0.000e+00   0.000e+00
   7.459e-03   0.000e+00   0.000e+00
   7.365e-03   0.000e+00   0.000e+00
   8.158e-03   0.000e+00   0.000e+00
   7.028e-03   0.000e+00   0.000e+00
   2.617e-01   0.000e+00   0.000e+00
   2.142e-01   0.000e+00   0.000e+00
   2.148e-01   0.000e+00   0.000e+00
   2.142e-01   0.000e+00   0.000e+00
   1.771e-01   0.000e+00   0.000e+00
   1.671e-01   0.000e+00   0.000e+00
   1.771e-01   0.000e+00   0.000e+00
   1.506e-01   0.000e+00   0.000e+00
   1.296e-01   0.000e+00   0.000e+00
   1.506e-01   0.000e+00   0.000e+00
   1.350e-01   0.000e+00   0.000e+00
   1.028e-01   0.000e+00   0.000e+00
   1.350e-01   0.000e+00   0.000e+00
   1.323e-01   0.000e+00   0.000e+00
   1.262e-01   0.000e+00   0.000e+00
   1.097e-01   0.000e+00   0.000e+00
   3.962e-03   0.000e+00   0.000e+00
   3.998e-03   0.000e+00   0.000e+00
   3.951e-03   0.000e+00   0.000e+00
   1.107e-01   0.000e+00   0.000e+00
   1.182e-01   0.000e+00   0.000e+00
   1.060e-01   0.000e+00   0.000e+00
   3.930e-03   0.000e+00   0.000e+00
   4.173e-03   0.000e+00   0.000e+00
   4.073e-03   0.000e+00   0.000e+00
   3.951e-03   0.000e+00   0.000e+00
   1.060e-01   0.000e+00   0.000e+00
   1.097e-01   0.000e+00   0.000e+00
   1.262e-01   0.000e+00   0.000e+00
   1.182e-01   0.000e+00   0.000e+00
   3.998e-03   0.000e+00   0.000e+00
   4.073e-03   0.000e+00   0.000e+00
   3.951e-03   0.000e+00   0.000e+00
   8.697e-02   0.000e+00   0.000e+00
   1.097e-01   0.000e+00   0.000e+00
   1.060e-01   0.000e+00   0.000e+00
   3.930e-03   0.000e+00   0.000e+00
   3.898e-03   0.000e+00   0.000e+00
   4.255e-03   0.000e+00   0.000e+00
   3.861e-03   0.000e+00   0.000e+00
   4.204e-03   0.000e+00   0.000e+00
   3.898e-03   0.000e+00   0.000e+00
   4.204e-03   0.000e+00   0.000e+00
   4.255e-03   0.000e+00   0.000e+00
   3.898e-03   0.000e+00   0.000e+00
   8.232e-02   0.000e+00   0.000e+00
   8.511e-02   0.000e+00   0.000e+00
   8.352e-02   0.000e+00   0.000e+00
   4.764e-03   0.000e+00   0.000e+00
   4.813e-03   0.000e+00   0.000e+00
   4.255e-03   0.000e+00   0.000e+00
   4.204e-03   0.000e+00   0.000e+00
   3.861e-03   0.000e+00   0.000e+00
   3.828e-03   0.000e+00   0.000e+00
   4.121e-03   0.000e+00   0.000e+00
   1.507e-01   0.000e+00   0.000e+00
   1.307e-01   0.000e+00   0.000e+00
   1.493e-01   0.000e+00   0.000e+00
   3.880e-03   0.000e+00   0.000e+00
   3.823e-03   0.000e+00   0.000e+00
   4.015e-03   0.000e+00   0.000e+00
   3.828e-03   0.000e+00   0.000e+00
   4.015e-03   0.000e+00   0.000e+00
   4.121e-03   0.000e+00   0.000e+00
   3.828e-03   0.000e+00   0.000e+00
   4.637e-03   0.000e+00   0.000e+00
   4.121e-03   0.000e+00   0.000e+00
   4.015e-03   0.000e+00   0.000e+00
   1.507e-01   0.000e+00   0.000e+00
   1.767e-01   0.000e+00   0.000e+00
   1.028e-01   0.000e+00   0.000e+00
   1.767e-01   0.000e+00   0.000e+00
   2.133e-01   0.000e+00   0.000e+00
   1.289e-01   0.000e+00   0.000e+00
   2.133e-01   0.000e+00   0.000e+00
   2.605e-01   0.000e+00   0.000e+00
   1.656e-01   0.000e+00   0.000e+00
   2.605e-01   0.000e+00   0.000e+00
   3.182e-01   0.000e+00   0.000e+00
   2.130e-01   0.000e+00   0.000e+00
   3.182e-01   0.000e+00   0.000e+00
   3.510e-01   0.000e+00   0.000e+00
   2.932e-01   0.000e+00   0.000e+00
   3.517e-01   0.000e+00   0.000e+00
   3.718e-01   0.000e+00   0.000e+00
   3.261e-01   0.000e+00   0.000e+00
   3.510e-01   0.000e+00   0.000e+00
   1.203e-02   0.000e+00   0.000e+00
   9.861e-03   0.000e+00   0.000e+00
   1.111e-02   0.000e+00   0.000e+00
   3.261e-01   0.000e+00   0.000e+00
   2.932e-01   0.000e+00   0.000e+00
   3.510e-01   0.000e+00   0.000e+00
   2.709e-01   0.000e+00   0.000e+00
   2.932e-01   0.000e+00   0.000e+00
   3.261e-01   0.000e+00   0.000e+00
   1.203e-02   0.000e+00   0.000e+00
   1.788e-02   0.000e+00   0.000e+00
   9.045e-03   0.000e+00   0.000e+00
   1.788e-02   0.000e+00   0.000e+00
   2.617e-02   0.000e+00   0.000e+00
   1.410e-02   0.000e+00   0.000e+00
   2.617e-02   0.000e+00   0.000e+00
   3.746e-02   0.000e+00   0.000e+00
   2.150e-02   0.000e+00   0.000e+00
   3.746e-02   0.000e+00   0.000e+00
   5.237e-02   0.000e+00   0.000e+00
   3.182e-02   0.000e+00   0.000e+00
   5.237e-02   0.000e+00   0.000e+00
   7.157e-02   0.000e+00   0.000e+00
   4.566e-02   0.000e+00   0.000e+00
   7.157e-02   0.000e+00   0.000e+00
   9.583e-02   0.000e+00   0.000e+00
   6.370e-02   0.000e+00   0.000e+00
   9.583e-02   0.000e+00   0.000e+00
   1.259e-01   0.000e+00   0.000e+00
   8.670e-02   0.000e+00   0.000e+00
   1.259e-01   0.000e+00   0.000e+00
   1.628e-01   0.000e+00   0.000e+00
   1.155e-01   0.000e+00   0.000e+00
   1.509e-01   0.000e+00   0.000e+00
   1.156e-01   0.000e+00   0.000e+00
   1.419e-01   0.000e+00   0.000e+00
   1.156e-01   0.000e+00   0.000e+00
   8.697e-02   0.000e+00   0.000e+00
   1.078e-01   0.000e+00   0.000e+00
   8.697e-02   0.000e+00   0.000e+00
   6.412e-02   0.000e+00   0.000e+00
   8.021e-02   0.000e+00   0.000e+00
   6.412e-02   0.000e+00   0.000e+00
   4.622e-02   0.000e+00   0.000e+00
   5.835e-02   0.000e+00   0.000e+00
   4.622e-02   0.000e+00   0.000e+00
   3.255e-02   0.000e+00   0.000e+00
   4.138e-02   0.000e+00   0.000e+00
   3.255e-02   0.000e+00   0.000e+00
   2.241e-02   0.000e+00   0.000e+00
   2.857e-02   0.000e+00   0.000e+00
   2.241e-02   0.000e+00   0.000e+00
   1.520e-02   0.000e+00   0.000e+00
   1.924e-02   0.000e+00   0.000e+00
   1.520e-02   0.000e+00   0.000e+00
   1.035e-02   0.000e+00   0.000e+00
   1.278e-02   0.000e+00   0.000e+00
   1.035e-02   0.000e+00   0.000e+00
   7.365e-03   0.000e+00   0.000e+00
   8.654e-03   0.000e+00   0.000e+00
   7.365e-03   0.000e+00   0.000e+00
   6.427e-03   0.000e+00   0.000e+00
   6.789e-03   0.000e+00   0.000e+00
   2.148e-01   0.000e+00   0.000e+00
   2.170e-01   0.000e+00   0.000e+00
   2.275e-01   0.000e+00   0.000e+00
   5.864e-03   0.000e+00   0.000e+00
   6.055e-03   0.000e+00   0.000e+00
   6.038e-03   0.000e+00   0.000e+00
   6.427e-03   0.000e+00   0.000e+00
   6.038e-03   0.000e+00   0.000e+00
   6.789e-03   0.000e+00   0.000e+00
   6.427e-03   0.000e+00   0.000e+00
   6.392e-03   0.000e+00   0.000e+00
   6.789e-03   0.000e+00   0.000e+00
   6.038e-03   0.000e+00   0.000e+00
   2.148e-01   0.000e+00   0.000e+00
   1.897e-01   0.000e+00   0.000e+00
   1.954e-01   0.000e+00   0.000e+00
   1.671e-01   0.000e+00   0.000e+00
   1.702e-01   0.000e+00   0.000e+00
   1.897e-01   0.000e+00   0.000e+00
   1.702e-01   0.000e+00   0.000e+00
   1.954e-01   0.000e+00   0.000e+00
   1.897e-01   0.000e+00   0.000e+00
   1.953e-01   0.000e+00   0.000e+00
   1.752e-01   0.000e+00   0.000e+00
   1.954e-01   0.000e+00   0.000e+00
   1.702e-01   0.000e+00   0.000e+00
   5.548e-03   0.000e+00   0.000e+00
   5.588e-03   0.000e+00   0.000e+00
   5.486e-03   0.000e+00   0.000e+00
   1.671e-01   0.000e+00   0.000e+00
   1.296e-01   0.000e+00   0.000e+00
   1.307e-01   0.000e+00   0.000e+00
   1.296e-01   0.000e+00   0.000e+00
   1.028e-01   0.000e+00   0.000e+00
   9.236e-02   0.000e+00   0.000e+00
   1.028e-01   0.000e+00   0.000e+00
   8.697e-02   0.000e+00   0.000e+00
   6.485e-02   0.000e+00   0.000e+00
   8.697e-02   0.000e+00   0.000e+00
   8.232e-02   0.000e+00   0.000e+00
   4.877e-02   0.000e+00   0.000e+00
   8.232e-02   0.000e+00   0.000e+00
   8.240e-02   0.000e+00   0.000e+00
   7.253e-02   0.000e+00   0.000e+00
   6.190e-02   0.000e+00   0.000e+00
   4.851e-03   0.000e+00   0.000e+00
   5.198e-03   0.000e+00   0.000e+00
   4.771e-03   0.000e+00   0.000e+00
   6.939e-02   0.000e+00   0.000e+00
   6.609e-02   0.000e+00   0.000e+00
   6.360e-02   0.000e+00   0.000e+00
   4.637e-03   0.000e+00   0.000e+00
   5.309e-03   0.000e+00   0.000e+00
   5.456e-03   0.000e+00   0.000e+00
   4.771e-03   0.000e+00   0.000e+00
   6.360e-02   0.000e+00   0.000e+00
   6.190e-02   0.000e+00   0.000e+00
   7.253e-02   0.000e+00   0.000e+00
   6.609e-02   0.000e+00   0.000e+00
   5.198e-03   0.000e+00   0.000e+00
   5.456e-03   0.000e+00   0.000e+00
   4.771e-03   0.000e+00   0.000e+00
   4.381e-02   0.000e+00   0.000e+00
   6.190e-02   0.000e+00   0.000e+00
   6.360e-02   0.000e+00   0.000e+00
   8.982e-02   0.000e+00   0.000e+00
   7.860e-02   0.000e+00   0.000e+00
   9.390e-02   0.000e+00   0.000e+00
   6.731e-02   0.000e+00   0.000e+00
   4.637e-03   0.000e+00   0.000e+00
   4.568e-03   0.000e+00   0.000e+00
   4.939e-03   0.000e+00   0.000e+00
   1.028e-01   0.000e+00   0.000e+00
   7.359e-02   0.000e+00   0.000e+00
   9.390e-02   0.000e+00   0.000e+00
   7.359e-02   0.000e+00   0.000e+00
   6.731e-02   0.000e+00   0.000e+00
   9.390e-02   0.000e+00   0.000e+00
   4.928e-02   0.000e+00   0.000e+00
   6.731e-02   0.000e+00   0.000e+00
   7.359e-02   0.000e+00   0.000e+00
   1.028e-01   0.000e+00   0.000e+00
   1.289e-01   0.000e+00   0.000e+00
   6.492e-02   0.000e+00   0.000e+00
   1.289e-01   0.000e+00   0.000e+00
   1.656e-01   0.000e+00   0.000e+00
   9.128e-02   0.000e+00   0.000e+00
   1.656e-01   0.000e+00   0.000e+00
   2.130e-01   0.000e+00   0.000e+00
   1.284e-01   0.000e+00   0.000e+00
   2.130e-01   0.000e+00   0.000e+00
   2.709e-01   0.000e+00   0.000e+00
   1.760e-01   0.000e+00   0.000e+00
   2.709e-01   0.000e+00   0.000e+00
   3.018e-01   0.000e+00   0.000e+00
   2.979e-01   0.000e+00   0.000e+00
   2.511e-01   0.000e+00   0.000e+00
   7.170e-03   0.000e+00   0.000e+00
   6.980e-03   0.000e+00   0.000e+00
   7.257e-03   0.000e+00   0.000e+00
   9.045e-03   0.000e+00   0.000e+00
   6.300e-03   0.000e+00   0.000e+00
   7.257e-03   0.000e+00   0.000e+00
   2.979e-01   0.000e+00   0.000e+00
   2.665e-01   0.000e+00   0.000e+00
   2.511e-01   0.000e+00   0.000e+00
   6.300e-03   0.000e+00   0.000e+00
   6.980e-03   0.000e+00   0.000e+00
   5.602e-03   0.000e+00   0.000e+00
   7.257e-03   0.000e+00   0.000e+00
   2.665e-01   0.000e+00   0.000e+00
   2.361e-01   0.000e+00   0.000e+00
   2.511e-01   0.000e+00   0.000e+00
   4.443e-03   0.000e+00   0.000e+00
   5.602e-03   0.000e+00   0.000e+00
   4.513e-03   0.000e+00   0.000e+00
   6.300e-03   0.000e+00   0.000e+00
   9.045e-03   0.000e+00   0.000e+00
   1.410e-02   0.000e+00   0.000e+00
   7.043e-03   0.000e+00   0.000e+00
   1.410e-02   0.000e+00   0.000e+00
   2.150e-02   0.000e+00   0.000e+00
   1.147e-02   0.000e+00   0.000e+00
   2.150e-02   0.000e+00   0.000e+00
   3.182e-02   0.000e+00   0.000e+00
   1.819e-02   0.000e+00   0.000e+00
   3.182e-02   0.000e+00   0.000e+00
   4.566e-02   0.000e+00   0.000e+00
   2.775e-02   0.000e+00   0.000e+00
   4.566e-02   0.000e+00   0.000e+00
   6.370e-02   0.000e+00   0.000e+00
   4.076e-02   0.000e+00   0.000e+00
   6.370e-02   0.000e+00   0.000e+00
   8.670e-02   0.000e+00   0.000e+00
   5.790e-02   0.000e+00   0.000e+00
   8.670e-02   0.000e+00   0.000e+00
   1.155e-01   0.000e+00   0.000e+00
   7.992e-02   0.000e+00   0.000e+00
   1.155e-01   0.000e+00   0.000e+00
   1.509e-01   0.000e+00   0.000e+00
   1.076e-01   0.000e+00   0.000e+00
   1.419e-01   0.000e+00   0.000e+00
   1.078e-01   0.000e+00   0.000e+00
   1.357e-01   0.000e+00   0.000e+00
   1.078e-01   0.000e+00   0.000e+00
   8.021e-02   0.000e+00   0.000e+00
   1.024e-01   0.000e+00   0.000e+00
   8.021e-02   0.000e+00   0.000e+00
   5.835e-02   0.000e+00   0.000e+00
   7.555e-02   0.000e+00   0.000e+00
   5.835e-02   0.000e+00   0.000e+00
   4.138e-02   0.000e+00   0.000e+00
   5.439e-02   0.000e+00   0.000e+00
   4.138e-02   0.000e+00   0.000e+00
   2.857e-02   0.000e+00   0.000e+00
   3.808e-02   0.000e+00   0.000e+00
   2.857e-02   0.000e+00   0.000e+00
   1.924e-02   0.000e+00   0.000e+00
   2.589e-02   0.000e+00   0.000e+00
   1.924e-02   0.000e+00   0.000e+00
   1.278e-02   0.000e+00   0.000e+00
   1.714e-02   0.000e+00   0.000e+00
   1.278e-02   0.000e+00   0.000e+00
   8.654e-03   0.000e+00   0.000e+00
   1.123e-02   0.000e+00   0.000e+00
   8.654e-03   0.000e+00   0.000e+00
   6.392e-03   0.000e+00   0.000e+00
   7.648e-03   0.000e+00   0.000e+00
   6.392e-03   0.000e+00   0.000e+00
   5.548e-03   0.000e+00   0.000e+00
   5.964e-03   0.000e+00   0.000e+00
   1.647e-01   0.000e+00   0.000e+00
   1.562e-01   0.000e+00   0.000e+00
   1.535e-01   0.000e+00   0.000e+00
   5.548e-03   0.000e+00   0.000e+00
   5.500e-03   0.000e+00   0.000e+00
   5.557e-03   0.000e+00   0.000e+00
   5.644e-03   0.000e+00   0.000e+00
   1.307e-01   0.000e+00   0.000e+00
   1.385e-01   0.000e+00   0.000e+00
   1.432e-01   0.000e+00   0.000e+00
   1.535e-01   0.000e+00   0.000e+00
   5.797e-03   0.000e+00   0.000e+00
   5.715e-03   0.000e+00   0.000e+00
   5.807e-03   0.000e+00   0.000e+00
   1.562e-01   0.000e+00   0.000e+00
   1.432e-01   0.000e+00   0.000e+00
   1.535e-01   0.000e+00   0.000e+00
   5.807e-03   0.000e+00   0.000e+00
   5.644e-03   0.000e+00   0.000e+00
   5.557e-03   0.000e+00   0.000e+00
   5.715e-03   0.000e+00   0.000e+00
   5.833e-03   0.000e+00   0.000e+00
   5.644e-03   0.000e+00   0.000e+00
   5.807e-03   0.000e+00   0.000e+00
   1.307e-01   0.000e+00   0.000e+00
   9.236e-02   0.000e+00   0.000e+00
   1.058e-01   0.000e+00   0.000e+00
   9.236e-02   0.000e+00   0.000e+00
   6.485e-02   0.000e+00   0.000e+00
   6.533e-02   0.000e+00   0.000e+00
   6.485e-02   0.000e+00   0.000e+00
   4.877e-02   0.000e+00   0.000e+00
   3.617e-02   0.000e+00   0.000e+00
   4.877e-02   0.000e+00   0.000e+00
   4.381e-02   0.000e+00   0.000e+00
   2.034e-02   0.000e+00   0.000e+00
   4.381e-02   0.000e+00   0.000e+00
   4.928e-02   0.000e+00   0.000e+00
   1.554e-02   0.000e+00   0.000e+00
   4.928e-02   0.000e+00   0.000e+00
   6.492e-02   0.000e+00   0.000e+00
   2.115e-02   0.000e+00   0.000e+00
   6.492e-02   0.000e+00   0.000e+00
   9.128e-02   0.000e+00   0.000e+00
   3.718e-02   0.000e+00   0.000e+00
   9.128e-02   0.000e+00   0.000e+00
   1.284e-01   0.000e+00   0.000e+00
   6.389e-02   0.000e+00   0.000e+00
   1.284e-01   0.000e+00   0.000e+00
   1.760e-01   0.000e+00   0.000e+00
   1.014e-01   0.000e+00   0.000e+00
   1.760e-01   0.000e+00   0.000e+00
   2.037e-01   0.000e+00   0.000e+00
   1.614e-01   0.000e+00   0.000e+00
   2.246e-01   0.000e+00   0.000e+00
   2.317e-01   0.000e+00   0.000e+00
   1.892e-01   0.000e+00   0.000e+00
   2.037e-01   0.000e+00   0.000e+00
   4.443e-03   0.000e+00   0.000e+00
   4.165e-03   0.000e+00   0.000e+00
   4.379e-03   0.000e+00   0.000e+00
   1.892e-01   0.000e+00   0.000e+00
   1.614e-01   0.000e+00   0.000e+00
   2.037e-01   0.000e+00   0.000e+00
   1.495e-01   0.000e+00   0.000e+00
   1.614e-01   0.000e+00   0.000e+00
   1.892e-01   0.000e+00   0.000e+00
   4.443e-03   0.000e+00   0.000e+00
   7.043e-03   0.000e+00   0.000e+00
   3.574e-03   0.000e+00   0.000e+00
   7.043e-03   0.000e+00   0.000e+00
   1.147e-02   0.000e+00   0.000e+00
   5.771e-03   0.000e+00   0.000e+00
   1.147e-02   0.000e+00   0.000e+00
   1.819e-02   0.000e+00   0.000e+00
   9.756e-03   0.000e+00   0.000e+00
   1.819e-02   0.000e+00   0.000e+00
   2.775e-02   0.000e+00   0.000e+00
   1.599e-02   0.000e+00   0.000e+00
   2.775e-02   0.000e+00   0.000e+00
   4.076e-02   0.000e+00   0.000e+00
   2.501e-02   0.000e+00   0.000e+00
   4.076e-02   0.000e+00   0.000e+00
   5.790e-02   0.000e+00   0.000e+00
   3.742e-02   0.000e+00   0.000e+00
   5.790e-02   0.000e+00   0.000e+00
   7.992e-02   0.000e+00   0.000e+00
   5.392e-02   0.000e+00   0.000e+00
   7.992e-02   0.000e+00   0.000e+00
   1.076e-01   0.000e+00   0.000e+00
   7.525e-02   0.000e+00   0.000e+00
   1.076e-01   0.000e+00   0.000e+00
   1.419e-01   0.000e+00   0.000e+00
   1.022e-01   0.000e+00   0.000e+00
   1.357e-01   0.000e+00   0.000e+00
   1.024e-01   0.000e+00   0.000e+00
   1.320e-01   0.000e+00   0.000e+00
   1.024e-01   0.000e+00   0.000e+00
   7.555e-02   0.000e+00   0.000e+00
   9.918e-02   0.000e+00   0.000e+00
   7.555e-02   0.000e+00   0.000e+00
   5.439e-02   0.000e+00   0.000e+00
   7.281e-02   0.000e+00   0.000e+00
   5.439e-02   0.000e+00   0.000e+00
   3.808e-02   0.000e+00   0.000e+00
   5.208e-02   0.000e+00   0.000e+00
   3.808e-02   0.000e+00   0.000e+00
   2.589e-02   0.000e+00   0.000e+00
   3.616e-02   0.000e+00   0.000e+00
   2.589e-02   0.000e+00   0.000e+00
   1.714e-02   0.000e+00   0.000e+00
   2.434e-02   0.000e+00   0.000e+00
   1.714e-02   0.000e+00   0.000e+00
   1.123e-02   0.000e+00   0.000e+00
   1.593e-02   0.000e+00   0.000e+00
   1.123e-02   0.000e+00   0.000e+00
   7.648e-03   0.000e+00   0.000e+00
   1.034e-02   0.000e+00   0.000e+00
   7.648e-03   0.000e+00   0.000e+00
   5.964e-03   0.000e+00   0.000e+00
   7.083e-03   0.000e+00   0.000e+00
   5.964e-03   0.000e+00   0.000e+00
   5.833e-03   0.000e+00   0.000e+00
   5.744e-03   0.000e+00   0.000e+00
   5.833e-03   0.000e+00   0.000e+00
   6.208e-03   0.000e+00   0.000e+00
   6.022e-03   0.000e+00   0.000e+00
   1.058e-01   0.000e+00   0.000e+00
   1.068e-01   0.000e+00   0.000e+00
   1.087e-01   0.000e+00   0.000e+00
   6.793e-03   0.000e+00   0.000e+00
   6.696e-03   0.000e+00   0.000e+00
   6.693e-03   0.000e+00   0.000e+00
   6.208e-03   0.000e+00   0.000e+00
   6.693e-03   0.000e+00   0.000e+00
   6.022e-03   0.000e+00   0.000e+00
   6.208e-03   0.000e+00   0.000e+00
   6.122e-03   0.000e+00   0.000e+00
   6.022e-03   0.000e+00   0.000e+00
   6.693e-03   0.000e+00   0.000e+00
   1.058e-01   0.000e+00   0.000e+00
   8.416e-02   0.000e+00   0.000e+00
   1.043e-01   0.000e+00   0.000e+00
   9.328e-02   0.000e+00   0.000e+00
   6.926e-03   0.000e+00   0.000e+00
   7.635e-03   0.000e+00   0.000e+00
   7.678e-03   0.000e+00   0.000e+00
   6.533e-02   0.000e+00   0.000e+00
   7.609e-02   0.000e+00   0.000e+00
   8.416e-02   0.000e+00   0.000e+00
   7.609e-02   0.000e+00   0.000e+00
   9.328e-02   0.000e+00   0.000e+00
   8.595e-02   0.000e+00   0.000e+00
   8.416e-02   0.000e+00   0.000e+00
   7.635e-03   0.000e+00   0.000e+00
   8.231e-03   0.000e+00   0.000e+00
   7.678e-03   0.000e+00   0.000e+00
   8.595e-02   0.000e+00   0.000e+00
   8.126e-02   0.000e+00   0.000e+00
   7.609e-02   0.000e+00   0.000e+00
   8.844e-03   0.000e+00   0.000e+00
   7.678e-03   0.000e+00   0.000e+00
   8.231e-03   0.000e+00   0.000e+00
   8.680e-03   0.000e+00   0.000e+00
   6.533e-02   0.000e+00   0.000e+00
   3.617e-02   0.000e+00   0.000e+00
   4.172e-02   0.000e+00   0.000e+00
   3.617e-02   0.000e+00   0.000e+00
   2.034e-02   0.000e+00   0.000e+00
   1.562e-02   0.000e+00   0.000e+00
   2.034e-02   0.000e+00   0.000e+00
   1.554e-02   0.000e+00   0.000e+00
   2.069e-03   0.000e+00   0.000e+00
   1.554e-02   0.000e+00   0.000e+00
   2.115e-02   0.000e+00   0.000e+00
  -2.132e-03   0.000e+00   0.000e+00
   2.115e-02   0.000e+00   0.000e+00
   3.718e-02   0.000e+00   0.000e+00
   3.596e-03   0.000e+00   0.000e+00
   3.718e-02   0.000e+00   0.000e+00
   6.389e-02   0.000e+00   0.000e+00
   1.967e-02   0.000e+00   0.000e+00
   6.389e-02   0.000e+00   0.000e+00
   1.014e-01   0.000e+00   0.000e+00
   4.653e-02   0.000e+00   0.000e+00
   1.014e-01   0.000e+00   0.000e+00
   1.495e-01   0.000e+00   0.000e+00
   8.467e-02   0.000e+00   0.000e+00
   1.495e-01   0.000e+00   0.000e+00
   1.661e-01   0.000e+00   0.000e+00
   1.418e-01   0.000e+00   0.000e+00
   2.892e-03   0.000e+00   0.000e+00
   2.655e-03   0.000e+00   0.000e+00
   3.023e-03   0.000e+00   0.000e+00
   2.631e-03   0.000e+00   0.000e+00
   3.574e-03   0.000e+00   0.000e+00
   2.802e-03   0.000e+00   0.000e+00
   3.023e-03   0.000e+00   0.000e+00
   2.802e-03   0.000e+00   0.000e+00
   2.631e-03   0.000e+00   0.000e+00
   3.023e-03   0.000e+00   0.000e+00
   2.497e-03   0.000e+00   0.000e+00
   2.631e-03   0.000e+00   0.000e+00
   2.802e-03   0.000e+00   0.000e+00
   3.574e-03   0.000e+00   0.000e+00
   5.771e-03   0.000e+00   0.000e+00
   3.069e-03   0.000e+00   0.000e+00
   5.771e-03   0.000e+00   0.000e+00
   9.756e-03   0.000e+00   0.000e+00
   5.047e-03   0.000e+00   0.000e+00
   9.756e-03   0.000e+00   0.000e+00
   1.599e-02   0.000e+00   0.000e+00
   8.786e-03   0.000e+00   0.000e+00
   1.599e-02   0.000e+00   0.000e+00
   2.501e-02   0.000e+00   0.000e+00
   1.474e-02   0.000e+00   0.000e+00
   2.501e-02   0.000e+00   0.000e+00
   3.742e-02   0.000e+00   0.000e+00
   2.344e-02   0.000e+00   0.000e+00
   3.742e-02   0.000e+00   0.000e+00
   5.392e-02   0.000e+00   0.000e+00
   3.550e-02   0.000e+00   0.000e+00
   5.392e-02   0.000e+00   0.000e+00
   7.525e-02   0.000e+00   0.000e+00
   5.161e-02   0.000e+00   0.000e+00
   7.525e-02   0.000e+00   0.000e+00
   1.022e-01   0.000e+00   0.000e+00
   7.251e-02   0.000e+00   0.000e+00
   1.022e-01   0.000e+00   0.000e+00
   1.357e-01   0.000e+00   0.000e+00
   9.903e-02   0.000e+00   0.000e+00
   1.320e-01   0.000e+00   0.000e+00
   9.918e-02   0.000e+00   0.000e+00
   1.308e-01   0.000e+00   0.000e+00
   9.918e-02   0.000e+00   0.000e+00
   7.281e-02   0.000e+00   0.000e+00
   9.812e-02   0.000e+00   0.000e+00
   7.281e-02   0.000e+00   0.000e+00
   5.208e-02   0.000e+00   0.000e+00
   7.190e-02   0.000e+00   0.000e+00
   5.208e-02   0.000e+00   0.000e+00
   3.616e-02   0.000e+00   0.000e+00
   5.130e-02   0.000e+00   0.000e+00
   3.616e-02   0.000e+00   0.000e+00
   2.434e-02   0.000e+00   0.000e+00
   3.551e-02   0.000e+00   0.000e+00
   2.434e-02   0.000e+00   0.000e+00
   1.593e-02   0.000e+00   0.000e+00
   2.380e-02   0.000e+00   0.000e+00
   1.593e-02   0.000e+00   0.000e+00
   1.034e-02   0.000e+00   0.000e+00
   1.550e-02   0.000e+00   0.000e+00
   1.034e-02   0.000e+00   0.000e+00
   7.083e-03   0.000e+00   0.000e+00
   1.000e-02   0.000e+00   0.000e+00
   7.083e-03   0.000e+00   0.000e+00
   5.744e-03   0.000e+00   0.000e+00
   6.813e-03   0.000e+00   0.000e+00
   5.744e-03   0.000e+00   0.000e+00
   6.122e-03   0.000e+00   0.000e+00
   5.491e-03   0.000e+00   0.000e+00
   6.122e-03   0.000e+00   0.000e+00
   8.844e-03   0.000e+00   0.000e+00
   5.766e-03   0.000e+00   0.000e+00
   8.844e-03   0.000e+00   0.000e+00
   9.838e-03   0.000e+00   0.000e+00
   8.874e-03   0.000e+00   0.000e+00
   4.172e-02   0.000e+00   0.000e+00
   7.162e-02   0.000e+00   0.000e+00
   6.671e-02   0.000e+00   0.000e+00
   1.439e-02   0.000e+00   0.000e+00
   1.001e-02   0.000e+00   0.000e+00
   1.430e-02   0.000e+00   0.000e+00
   9.838e-03   0.000e+00   0.000e+00
   1.430e-02   0.000e+00   0.000e+00
   8.874e-03   0.000e+00   0.000e+00
   9.838e-03   0.000e+00   0.000e+00
   7.566e-02   0.000e+00   0.000e+00
   8.538e-02   0.000e+00   0.000e+00
   7.465e-02   0.000e+00   0.000e+00
   8.310e-03   0.000e+00   0.000e+00
   1.407e-02   0.000e+00   0.000e+00
   8.874e-03   0.000e+00   0.000e+00
   1.430e-02   0.000e+00   0.000e+00
   4.172e-02   0.000e+00   0.000e+00
   1.562e-02   0.000e+00   0.000e+00
   2.269e-02   0.000e+00   0.000e+00
   1.562e-02   0.000e+00   0.000e+00
   2.069e-03   0.000e+00   0.000e+00
   7.692e-03   0.000e+00   0.000e+00
   2.069e-03   0.000e+00   0.000e+00
  -2.132e-03   0.000e+00   0.000e+00
  -4.731e-03   0.000e+00   0.000e+00
  -2.132e-03   0.000e+00   0.000e+00
   3.596e-03   0.000e+00   0.000e+00
  -8.827e-03   0.000e+00   0.000e+00
   3.596e-03   0.000e+00   0.000e+00
   1.967e-02   0.000e+00   0.000e+00
  -3.369e-03   0.000e+00   0.000e+00
   1.967e-02   0.000e+00   0.000e+00
   4.653e-02   0.000e+00   0.000e+00
   1.230e-02   0.000e+00   0.000e+00
   4.653e-02   0.000e+00   0.000e+00
   8.467e-02   0.000e+00   0.000e+00
   3.886e-02   0.000e+00   0.000e+00
   8.467e-02   0.000e+00   0.000e+00
   1.082e-01   0.000e+00   0.000e+00
   7.980e-02   0.000e+00   0.000e+00
   1.121e-01   0.000e+00   0.000e+00
   1.145e-01   0.000e+00   0.000e+00
   1.036e-01   0.000e+00   0.000e+00
   1.082e-01   0.000e+00   0.000e+00
   2.497e-03   0.000e+00   0.000e+00
   2.492e-03   0.000e+00   0.000e+00
   2.591e-03   0.000e+00   0.000e+00
   1.036e-01   0.000e+00   0.000e+00
   7.980e-02   0.000e+00   0.000e+00
   1.082e-01   0.000e+00   0.000e+00
   7.700e-02   0.000e+00   0.000e+00
   7.980e-02   0.000e+00   0.000e+00
   1.036e-01   0.000e+00   0.000e+00
   2.497e-03   0.000e+00   0.000e+00
   2.624e-03   0.000e+00   0.000e+00
   2.356e-03   0.000e+00   0.000e+00
   3.069e-03   0.000e+00   0.000e+00
   2.473e-03   0.000e+00   0.000e+00
   2.624e-03   0.000e+00   0.000e+00
   2.473e-03   0.000e+00   0.000e+00
   2.356e-03   0.000e+00   0.000e+00
   2.624e-03   0.000e+00   0.000e+00
   1.267e-01   0.000e+00   0.000e+00
   1.287e-01   0.000e+00   0.000e+00
   1.418e-01   0.000e+00   0.000e+00
   2.314e-03   0.000e+00   0.000e+00
   2.308e-03   0.000e+00   0.000e+00
   2.356e-03   0.000e+00   0.000e+00
   2.473e-03   0.000e+00   0.000e+00
   3.069e-03   0.000e+00   0.000e+00
   5.047e-03   0.000e+00   0.000e+00
   2.802e-03   0.000e+00   0.000e+00
   5.047e-03   0.000e+00   0.000e+00
   8.786e-03   0.000e+00   0.000e+00
   4.769e-03   0.000e+00   0.000e+00
   8.786e-03   0.000e+00   0.000e+00
   1.474e-02   0.000e+00   0.000e+00
   8.465e-03   0.000e+00   0.000e+00
   1.474e-02   0.000e+00   0.000e+00
   2.344e-02   0.000e+00   0.000e+00
   1.434e-02   0.000e+00   0.000e+00
   2.344e-02   0.000e+00   0.000e+00
   3.550e-02   0.000e+00   0.000e+00
   2.294e-02   0.000e+00   0.000e+00
   3.550e-02   0.000e+00   0.000e+00
   5.161e-02   0.000e+00   0.000e+00
   3.489e-02   0.000e+00   0.000e+00
   5.161e-02   0.000e+00   0.000e+00
   7.251e-02   0.000e+00   0.000e+00
   5.086e-02   0.000e+00   0.000e+00
   7.251e-02   0.000e+00   0.000e+00
   9.903e-02   0.000e+00   0.000e+00
   7.162e-02   0.000e+00   0.000e+00
   9.903e-02   0.000e+00   0.000e+00
   1.320e-01   0.000e+00   0.000e+00
   9.798e-02   0.000e+00   0.000e+00
   1.308e-01   0.000e+00   0.000e+00
   9.812e-02   0.000e+00   0.000e+00
   1.320e-01   0.000e+00   0.000e+00
   9.812e-02   0.000e+00   0.000e+00
   7.190e-02   0.000e+00   0.000e+00
   9.916e-02   0.000e+00   0.000e+00
   7.190e-02   0.000e+00   0.000e+00
   5.130e-02   0.000e+00   0.000e+00
   7.278e-02   0.000e+00   0.000e+00
   5.130e-02   0.000e+00   0.000e+00
   3.551e-02   0.000e+00   0.000e+00
   5.203e-02   0.000e+00   0.000e+00
   3.551e-02   0.000e+00   0.000e+00
   2.380e-02   0.000e+00   0.000e+00
   3.610e-02   0.000e+00   0.000e+00
   2.380e-02   0.000e+00   0.000e+00
   1.550e-02   0.000e+00   0.000e+00
   2.425e-02   0.000e+00   0.000e+00
   1.550e-02   0.000e+00   0.000e+00
   1.000e-02   0.000e+00   0.000e+00
   1.581e-02   0.000e+00   0.000e+00
   1.000e-02   0.000e+00   0.000e+00
   6.813e-03   0.000e+00   0.000e+00
   1.018e-02   0.000e+00   0.000e+00
   6.813e-03   0.000e+00   0.000e+00
   5.491e-03   0.000e+00   0.000e+00
   6.830e-03   0.000e+00   0.000e+00
   1.899e-01   0.000e+00   0.000e+00
   1.875e-01   0.000e+00   0.000e+00
   1.900e-01   0.000e+00   0.000e+00
   5.491e-03   0.000e+00   0.000e+00
   5.431e-03   0.000e+00   0.000e+00
   5.384e-03   0.000e+00   0.000e+00
   5.359e-03   0.000e+00   0.000e+00
   1.382e-01   0.000e+00   0.000e+00
   1.592e-01   0.000e+00   0.000e+00
   1.595e-01   0.000e+00   0.000e+00
   5.766e-03   0.000e+00   0.000e+00
   5.545e-03   0.000e+00   0.000e+00
   5.293e-03   0.000e+00   0.000e+00
   5.431e-03   0.000e+00   0.000e+00
   1.595e-01   0.000e+00   0.000e+00
   1.900e-01   0.000e+00   0.000e+00
   1.875e-01   0.000e+00   0.000e+00
   1.592e-01   0.000e+00   0.000e+00
   5.359e-03   0.000e+00   0.000e+00
   5.293e-03   0.000e+00   0.000e+00
   5.431e-03   0.000e+00   0.000e+00
   1.930e-01   0.000e+00   0.000e+00
   1.900e-01   0.000e+00   0.000e+00
   1.595e-01   0.000e+00   0.000e+00
   1.194e-01   0.000e+00   0.000e+00
   1.311e-01   0.000e+00   0.000e+00
   1.056e-01   0.000e+00   0.000e+00
   1.307e-01   0.000e+00   0.000e+00
   5.766e-03   0.000e+00   0.000e+00
   5.860e-03   0.000e+00   0.000e+00
   5.688e-03   0.000e+00   0.000e+00
   7.566e-02   0.000e+00   0.000e+00
   1.034e-01   0.000e+00   0.000e+00
   1.056e-01   0.000e+00   0.000e+00
   1.034e-01   0.000e+00   0.000e+00
   1.307e-01   0.000e+00   0.000e+00
   1.056e-01   0.000e+00   0.000e+00
   1.334e-01   0.000e+00   0.000e+00
   1.307e-01   0.000e+00   0.000e+00
   1.034e-01   0.000e+00   0.000e+00
   7.566e-02   0.000e+00   0.000e+00
   2.269e-02   0.000e+00   0.000e+00
   8.090e-02   0.000e+00   0.000e+00
   2.269e-02   0.000e+00   0.000e+00
   7.692e-03   0.000e+00   0.000e+00
   4.038e-02   0.000e+00   0.000e+00
   7.692e-03   0.000e+00   0.000e+00
  -4.731e-03   0.000e+00   0.000e+00
   1.505e-02   0.000e+00   0.000e+00
  -4.731e-03   0.000e+00   0.000e+00
  -8.827e-03   0.000e+00   0.000e+00
   7.231e-04   0.000e+00   0.000e+00
  -8.827e-03   0.000e+00   0.000e+00
  -3.369e-03   0.000e+00   0.000e+00
  -4.209e-03   0.000e+00   0.000e+00
  -3.369e-03   0.000e+00   0.000e+00
   1.230e-02   0.000e+00   0.000e+00
   4.090e-04   0.000e+00   0.000e+00
   1.230e-02   0.000e+00   0.000e+00
   3.886e-02   0.000e+00   0.000e+00
   1.496e-02   0.000e+00   0.000e+00
   3.886e-02   0.000e+00   0.000e+00
   7.700e-02   0.000e+00   0.000e+00
   4.045e-02   0.000e+00   0.000e+00
   7.700e-02   0.000e+00   0.000e+00
   1.267e-01   0.000e+00   0.000e+00
   7.828e-02   0.000e+00   0.000e+00
   1.267e-01   0.000e+00   0.000e+00
   1.553e-01   0.000e+00   0.000e+00
   1.262e-01   0.000e+00   0.000e+00
   1.862e-01   0.000e+00   0.000e+00
   1.861e-01   0.000e+00   0.000e+00
   1.549e-01   0.000e+00   0.000e+00
   1.553e-01   0.000e+00   0.000e+00
   2.802e-03   0.000e+00   0.000e+00
   2.815e-03   0.000e+00   0.000e+00
   2.800e-03   0.000e+00   0.000e+00
   1.549e-01   0.000e+00   0.000e+00
   1.262e-01   0.000e+00   0.000e+00
   1.553e-01   0.000e+00   0.000e+00
   1.283e-01   0.000e+00   0.000e+00
   1.262e-01   0.000e+00   0.000e+00
   1.549e-01   0.000e+00   0.000e+00
   1.862e-01   0.000e+00   0.000e+00
   2.105e-01   0.000e+00   0.000e+00
   1.861e-01   0.000e+00   0.000e+00
   2.802e-03   0.000e+00   0.000e+00
   3.589e-03   0.000e+00   0.000e+00
   2.802e-03   0.000e+00   0.000e+00
   3.334e-03   0.000e+00   0.000e+00
   2.358e-01   0.000e+00   0.000e+00
   2.193e-01   0.000e+00   0.000e+00
   2.197e-01   0.000e+00   0.000e+00
   4.769e-03   0.000e+00   0.000e+00
   4.083e-03   0.000e+00   0.000e+00
   3.575e-03   0.000e+00   0.000e+00
   3.589e-03   0.000e+00   0.000e+00
   2.197e-01   0.000e+00   0.000e+00
   1.861e-01   0.000e+00   0.000e+00
   2.105e-01   0.000e+00   0.000e+00
   2.193e-01   0.000e+00   0.000e+00
   3.334e-03   0.000e+00   0.000e+00
   3.575e-03   0.000e+00   0.000e+00
   3.589e-03   0.000e+00   0.000e+00
   1.888e-01   0.000e+00   0.000e+00
   1.861e-01   0.000e+00   0.000e+00
   2.197e-01   0.000e+00   0.000e+00
   2.554e-01   0.000e+00   0.000e+00
   2.621e-01   0.000e+00   0.000e+00
   2.558e-01   0.000e+00   0.000e+00
   4.769e-03   0.000e+00   0.000e+00
   6.373e-03   0.000e+00   0.000e+00
   4.776e-03   0.000e+00   0.000e+00
   5.030e-03   0.000e+00   0.000e+00
   8.465e-03   0.000e+00   0.000e+00
   6.422e-03   0.000e+00   0.000e+00
   6.373e-03   0.000e+00   0.000e+00
   2.621e-01   0.000e+00   0.000e+00
   2.769e-01   0.000e+00   0.000e+00
   2.558e-01   0.000e+00   0.000e+00
   6.422e-03   0.000e+00   0.000e+00
   5.030e-03   0.000e+00   0.000e+00
   5.640e-03   0.000e+00   0.000e+00
   6.373e-03   0.000e+00   0.000e+00
   2.589e-01   0.000e+00   0.000e+00
   2.558e-01   0.000e+00   0.000e+00
   2.769e-01   0.000e+00   0.000e+00
   2.891e-01   0.000e+00   0.000e+00
   5.640e-03   0.000e+00   0.000e+00
   6.183e-03   0.000e+00   0.000e+00
   6.422e-03   0.000e+00   0.000e+00
   8.465e-03   0.000e+00   0.000e+00
   1.110e-02   0.000e+00   0.000e+00
   8.540e-03   0.000e+00   0.000e+00
   1.434e-02   0.000e+00   0.000e+00
   1.119e-02   0.000e+00   0.000e+00
   1.110e-02   0.000e+00   0.000e+00
   1.119e-02   0.000e+00   0.000e+00
   8.540e-03   0.000e+00   0.000e+00
   1.110e-02   0.000e+00   0.000e+00
   3.387e-01   0.000e+00   0.000e+00
   3.376e-01   0.000e+00   0.000e+00
   3.448e-01   0.000e+00   0.000e+00
   8.714e-03   0.000e+00   0.000e+00
   9.127e-03   0.000e+00   0.000e+00
   8.540e-03   0.000e+00   0.000e+00
   1.119e-02   0.000e+00   0.000e+00
   1.434e-02   0.000e+00   0.000e+00
   2.294e-02   0.000e+00   0.000e+00
   1.479e-02   0.000e+00   0.000e+00
   2.294e-02   0.000e+00   0.000e+00
   3.489e-02   0.000e+00   0.000e+00
   2.350e-02   0.000e+00   0.000e+00
   3.489e-02   0.000e+00   0.000e+00
   5.086e-02   0.000e+00   0.000e+00
   3.555e-02   0.000e+00   0.000e+00
   5.086e-02   0.000e+00   0.000e+00
   7.162e-02   0.000e+00   0.000e+00
   5.165e-02   0.000e+00   0.000e+00
   7.162e-02   0.000e+00   0.000e+00
   9.798e-02   0.000e+00   0.000e+00
   7.254e-02   0.000e+00   0.000e+00
   9.798e-02   0.000e+00   0.000e+00
   1.308e-01   0.000e+00   0.000e+00
   9.904e-02   0.000e+00   0.000e+00
   1.320e-01   0.000e+00   0.000e+00
   9.916e-02   0.000e+00   0.000e+00
   1.357e-01   0.000e+00   0.000e+00
   9.916e-02   0.000e+00   0.000e+00
   7.278e-02   0.000e+00   0.000e+00
   1.023e-01   0.000e+00   0.000e+00
   7.278e-02   0.000e+00   0.000e+00
   5.203e-02   0.000e+00   0.000e+00
   7.550e-02   0.000e+00   0.000e+00
   5.203e-02   0.000e+00   0.000e+00
   3.610e-02   0.000e+00   0.000e+00
   5.431e-02   0.000e+00   0.000e+00
   3.610e-02   0.000e+00   0.000e+00
   2.425e-02   0.000e+00   0.000e+00
   3.797e-02   0.000e+00   0.000e+00
   2.425e-02   0.000e+00   0.000e+00
   1.581e-02   0.000e+00   0.000e+00
   2.573e-02   0.000e+00   0.000e+00
   1.581e-02   0.000e+00   0.000e+00
   1.018e-02   0.000e+00   0.000e+00
   1.692e-02   0.000e+00   0.000e+00
   1.018e-02   0.000e+00   0.000e+00
   8.253e-03   0.000e+00   0.000e+00
   1.048e-02   0.000e+00   0.000e+00
   2.675e-01   0.000e+00   0.000e+00
   3.044e-01   0.000e+00   0.000e+00
   3.061e-01   0.000e+00   0.000e+00
   6.830e-03   0.000e+00   0.000e+00
   7.006e-03   0.000e+00   0.000e+00
   8.410e-03   0.000e+00   0.000e+00
   8.253e-03   0.000e+00   0.000e+00
   3.061e-01   0.000e+00   0.000e+00
   3.044e-01   0.000e+00   0.000e+00
   3.176e-01   0.000e+00   0.000e+00
   8.410e-03   0.000e+00   0.000e+00
   9.003e-03   0.000e+00   0.000e+00
   1.048e-02   0.000e+00   0.000e+00
   8.253e-03   0.000e+00   0.000e+00
   3.558e-01   0.000e+00   0.000e+00
   3.176e-01   0.000e+00   0.000e+00
   3.528e-01   0.000e+00   0.000e+00
   3.061e-01   0.000e+00   0.000e+00
   9.003e-03   0.000e+00   0.000e+00
   1.079e-02   0.000e+00   0.000e+00
   1.048e-02   0.000e+00   0.000e+00
   2.597e-01   0.000e+00   0.000e+00
   2.620e-01   0.000e+00   0.000e+00
   2.262e-01   0.000e+00   0.000e+00
   2.680e-01   0.000e+00   0.000e+00
   6.830e-03   0.000e+00   0.000e+00
   6.761e-03   0.000e+00   0.000e+00
   6.833e-03   0.000e+00   0.000e+00
   1.930e-01   0.000e+00   0.000e+00
   2.323e-01   0.000e+00   0.000e+00
   2.262e-01   0.000e+00   0.000e+00
   2.323e-01   0.000e+00   0.000e+00
   2.680e-01   0.000e+00   0.000e+00
   2.262e-01   0.000e+00   0.000e+00
   2.769e-01   0.000e+00   0.000e+00
   2.680e-01   0.000e+00   0.000e+00
   2.323e-01   0.000e+00   0.000e+00
   1.930e-01   0.000e+00   0.000e+00
   1.334e-01   0.000e+00   0.000e+00
   2.079e-01   0.000e+00   0.000e+00
   1.334e-01   0.000e+00   0.000e+00
   8.090e-02   0.000e+00   0.000e+00
   1.487e-01   0.000e+00   0.000e+00
   8.090e-02   0.000e+00   0.000e+00
   4.038e-02   0.000e+00   0.000e+00
   9.913e-02   0.000e+00   0.000e+00
   4.038e-02   0.000e+00   0.000e+00
   1.505e-02   0.000e+00   0.000e+00
   6.058e-02   0.000e+00   0.000e+00
   1.505e-02   0.000e+00   0.000e+00
   7.231e-04   0.000e+00   0.000e+00
   3.376e-02   0.000e+00   0.000e+00
   7.231e-04   0.000e+00   0.000e+00
  -4.209e-03   0.000e+00   0.000e+00
   1.779e-02   0.000e+00   0.000e+00
  -4.209e-03   0.000e+00   0.000e+00
   4.090e-04   0.000e+00   0.000e+00
   1.180e-02   0.000e+00   0.000e+00
   4.090e-04   0.000e+00   0.000e+00
   1.496e-02   0.000e+00   0.000e+00
   1.529e-02   0.000e+00   0.000e+00
   1.496e-02   0.000e+00   0.000e+00
   4.045e-02   0.000e+00   0.000e+00
   2.779e-02   0.000e+00   0.000e+00
   4.045e-02   0.000e+00   0.000e+00
   7.828e-02   0.000e+00   0.000e+00
   5.029e-02   0.000e+00   0.000e+00
   7.828e-02   0.000e+00   0.000e+00
   1.283e-01   0.000e+00   0.000e+00
   8.789e-02   0.000e+00   0.000e+00
   1.283e-01   0.000e+00   0.000e+00
   1.888e-01   0.000e+00   0.000e+00
   1.405e-01   0.000e+00   0.000e+00
   1.888e-01   0.000e+00   0.000e+00
   2.589e-01   0.000e+00   0.000e+00
   2.029e-01   0.000e+00   0.000e+00
   2.589e-01   0.000e+00   0.000e+00
   3.387e-01   0.000e+00   0.000e+00
   2.738e-01   0.000e+00   0.000e+00
   3.387e-01   0.000e+00   0.000e+00
   3.561e-01   0.000e+00   0.000e+00
   3.732e-01   0.000e+00   0.000e+00
   3.449e-01   0.000e+00   0.000e+00
   9.807e-03   0.000e+00   0.000e+00
   1.089e-02   0.000e+00   0.000e+00
   1.148e-02   0.000e+00   0.000e+00
   4.018e-01   0.000e+00   0.000e+00
   3.845e-01   0.000e+00   0.000e+00
   3.886e-01   0.000e+00   0.000e+00
   1.479e-02   0.000e+00   0.000e+00
   1.286e-02   0.000e+00   0.000e+00
   1.165e-02   0.000e+00   0.000e+00
   1.148e-02   0.000e+00   0.000e+00
   3.886e-01   0.000e+00   0.000e+00
   3.449e-01   0.000e+00   0.000e+00
   3.732e-01   0.000e+00   0.000e+00
   3.845e-01   0.000e+00   0.000e+00
   1.089e-02   0.000e+00   0.000e+00
   1.165e-02   0.000e+00   0.000e+00
   1.148e-02   0.000e+00   0.000e+00
   3.539e-01   0.000e+00   0.000e+00
   3.449e-01   0.000e+00   0.000e+00
   3.886e-01   0.000e+00   0.000e+00
   1.479e-02   0.000e+00   0.000e+00
   1.876e-02   0.000e+00   0.000e+00
   1.534e-02   0.000e+00   0.000e+00
   2.350e-02   0.000e+00   0.000e+00
   1.938e-02   0.000e+00   0.000e+00
   1.876e-02   0.000e+00   0.000e+00
   1.938e-02   0.000e+00   0.000e+00
   1.534e-02   0.000e+00   0.000e+00
   1.876e-02   0.000e+00   0.000e+00
   4.438e-01   0.000e+00   0.000e+00
   4.365e-01   0.000e+00   0.000e+00
   4.589e-01   0.000e+00   0.000e+00
   1.549e-02   0.000e+00   0.000e+00
   1.732e-02   0.000e+00   0.000e+00
   1.534e-02   0.000e+00   0.000e+00
   1.938e-02   0.000e+00   0.000e+00
   2.350e-02   0.000e+00   0.000e+00
   3.555e-02   0.000e+00   0.000e+00
   2.515e-02   0.000e+00   0.000e+00
   3.555e-02   0.000e+00   0.000e+00
   5.165e-02   0.000e+00   0.000e+00
   3.753e-02   0.000e+00   0.000e+00
   5.165e-02   0.000e+00   0.000e+00
   7.254e-02   0.000e+00   0.000e+00
   5.400e-02   0.000e+00   0.000e+00
   7.254e-02   0.000e+00   0.000e+00
   9.904e-02   0.000e+00   0.000e+00
   7.530e-02   0.000e+00   0.000e+00
   9.904e-02   0.000e+00   0.000e+00
   1.320e-01   0.000e+00   0.000e+00
   1.022e-01   0.000e+00   0.000e+00
   1.357e-01   0.000e+00   0.000e+00
   1.023e-01   0.000e+00   0.000e+00
   1.419e-01   0.000e+00   0.000e+00
   1.023e-01   0.000e+00   0.000e+00
   7.550e-02   0.000e+00   0.000e+00
   1.078e-01   0.000e+00   0.000e+00
   7.550e-02   0.000e+00   0.000e+00
   5.431e-02   0.000e+00   0.000e+00
   8.014e-02   0.000e+00   0.000e+00
   5.431e-02   0.000e+00   0.000e+00
   3.797e-02   0.000e+00   0.000e+00
   5.823e-02   0.000e+00   0.000e+00
   3.797e-02   0.000e+00   0.000e+00
   2.573e-02   0.000e+00   0.000e+00
   4.121e-02   0.000e+00   0.000e+00
   2.573e-02   0.000e+00   0.000e+00
   1.692e-02   0.000e+00   0.000e+00
   2.834e-02   0.000e+00   0.000e+00
   1.692e-02   0.000e+00   0.000e+00
   1.361e-02   0.000e+00   0.000e+00
   1.780e-02   0.000e+00   0.000e+00
   3.558e-01   0.000e+00   0.000e+00
   3.962e-01   0.000e+00   0.000e+00
   3.670e-01   0.000e+00   0.000e+00
   1.338e-02   0.000e+00   0.000e+00
   1.159e-02   0.000e+00   0.000e+00
   1.436e-02   0.000e+00   0.000e+00
   1.361e-02   0.000e+00   0.000e+00
   1.436e-02   0.000e+00   0.000e+00
   1.780e-02   0.000e+00   0.000e+00
   1.361e-02   0.000e+00   0.000e+00
   1.893e-02   0.000e+00   0.000e+00
   1.780e-02   0.000e+00   0.000e+00
   1.436e-02   0.000e+00   0.000e+00
   3.558e-01   0.000e+00   0.000e+00
   2.769e-01   0.000e+00   0.000e+00
   3.817e-01   0.000e+00   0.000e+00
   2.769e-01   0.000e+00   0.000e+00
   2.079e-01   0.000e+00   0.000e+00
   3.028e-01   0.000e+00   0.000e+00
   2.079e-01   0.000e+00   0.000e+00
   1.487e-01   0.000e+00   0.000e+00
   2.340e-01   0.000e+00   0.000e+00
   1.487e-01   0.000e+00   0.000e+00
   9.913e-02   0.000e+00   0.000e+00
   1.755e-01   0.000e+00   0.000e+00
   9.913e-02   0.000e+00   0.000e+00
   6.058e-02   0.000e+00   0.000e+00
   1.272e-01   0.000e+00   0.000e+00
   6.058e-02   0.000e+00   0.000e+00
   3.376e-02   0.000e+00   0.000e+00
   8.959e-02   0.000e+00   0.000e+00
   3.376e-02   0.000e+00   0.000e+00
   1.779e-02   0.000e+00   0.000e+00
   6.264e-02   0.000e+00   0.000e+00
   1.779e-02   0.000e+00   0.000e+00
   1.180e-02   0.000e+00   0.000e+00
   4.590e-02   0.000e+00   0.000e+00
   1.180e-02   0.000e+00   0.000e+00
   1.529e-02   0.000e+00   0.000e+00
   3.921e-02   0.000e+00   0.000e+00
   1.529e-02   0.000e+00   0.000e+00
   2.779e-02   0.000e+00   0.000e+00
   4.212e-02   0.000e+00   0.000e+00
   2.779e-02   0.000e+00   0.000e+00
   5.029e-02   0.000e+00   0.000e+00
   5.290e-02   0.000e+00   0.000e+00
   5.029e-02   0.000e+00   0.000e+00
   8.789e-02   0.000e+00   0.000e+00
   6.466e-02   0.000e+00   0.000e+00
   8.789e-02   0.000e+00   0.000e+00
   1.405e-01   0.000e+00   0.000e+00
   1.020e-01   0.000e+00   0.000e+00
   1.405e-01   0.000e+00   0.000e+00
   2.029e-01   0.000e+00   0.000e+00
   1.654e-01   0.000e+00   0.000e+00
   2.029e-01   0.000e+00   0.000e+00
   2.738e-01   0.000e+00   0.000e+00
   2.294e-01   0.000e+00   0.000e+00
   2.738e-01   0.000e+00   0.000e+00
   3.539e-01   0.000e+00   0.000e+00
   3.003e-01   0.000e+00   0.000e+00
   3.539e-01   0.000e+00   0.000e+00
   4.438e-01   0.000e+00   0.000e+00
   3.802e-01   0.000e+00   0.000e+00
   4.438e-01   0.000e+00   0.000e+00
   4.794e-01   0.000e+00   0.000e+00
   4.869e-01   0.000e+00   0.000e+00
   4.556e-01   0.000e+00   0.000e+00
   1.910e-02   0.000e+00   0.000e+00
   1.976e-02   0.000e+00   0.000e+00
   2.026e-02   0.000e+00   0.000e+00
   5.138e-01   0.000e+00   0.000e+00
   4.965e-01   0.000e+00   0.000e+00
   5.043e-01   0.000e+00   0.000e+00
   2.515e-02   0.000e+00   0.000e+00
   2.228e-02   0.000e+00   0.000e+00
   2.064e-02   0.000e+00   0.000e+00
   2.026e-02   0.000e+00   0.000e+00
   5.043e-01   0.000e+00   0.000e+00
   4.556e-01   0.000e+00   0.000e+00
   4.869e-01   0.000e+00   0.000e+00
   4.965e-01   0.000e+00   0.000e+00
   1.976e-02   0.000e+00   0.000e+00
   2.064e-02   0.000e+00   0.000e+00
   2.026e-02   0.000e+00   0.000e+00
   4.700e-01   0.000e+00   0.000e+00
   4.556e-01   0.000e+00   0.000e+00
   5.043e-01   0.000e+00   0.000e+00
   2.515e-02   0.000e+00   0.000e+00
   3.753e-02   0.000e+00   0.000e+00
   2.799e-02   0.000e+00   0.000e+00
   3.753e-02   0.000e+00   0.000e+00
   5.400e-02   0.000e+00   0.000e+00
   4.092e-02   0.000e+00   0.000e+00
   5.400e-02   0.000e+00   0.000e+00
   7.530e-02   0.000e+00   0.000e+00
   5.801e-02   0.000e+00   0.000e+00
   7.530e-02   0.000e+00   0.000e+00
   1.022e-01   0.000e+00   0.000e+00
   7.999e-02   0.000e+00   0.000e+00
   1.022e-01   0.000e+00   0.000e+00
   1.357e-01   0.000e+00   0.000e+00
   1.077e-01   0.000e+00   0.000e+00
   1.419e-01   0.000e+00   0.000e+00
   1.078e-01   0.000e+00   0.000e+00
   1.509e-01   0.000e+00   0.000e+00
   1.078e-01   0.000e+00   0.000e+00
   8.014e-02   0.000e+00   0.000e+00
   1.156e-01   0.000e+00   0.000e+00
   8.014e-02   0.000e+00   0.000e+00
   5.823e-02   0.000e+00   0.000e+00
   8.689e-02   0.000e+00   0.000e+00
   5.823e-02   0.000e+00   0.000e+00
   4.121e-02   0.000e+00   0.000e+00
   6.398e-02   0.000e+00   0.000e+00
   4.121e-02   0.000e+00   0.000e+00
   2.834e-02   0.000e+00   0.000e+00
   4.602e-02   0.000e+00   0.000e+00
   2.834e-02   0.000e+00   0.000e+00
   1.893e-02   0.000e+00   0.000e+00
   3.227e-02   0.000e+00   0.000e+00
   4.362e-01   0.000e+00   0.000e+00
   4.400e-01   0.000e+00   0.000e+00
   4.250e-01   0.000e+00   0.000e+00
   1.893e-02   0.000e+00   0.000e+00
   1.618e-02   0.000e+00   0.000e+00
   1.644e-02   0.000e+00   0.000e+00
   2.033e-02   0.000e+00   0.000e+00
   3.817e-01   0.000e+00   0.000e+00
   4.419e-01   0.000e+00   0.000e+00
   4.250e-01   0.000e+00   0.000e+00
   4.419e-01   0.000e+00   0.000e+00
   4.400e-01   0.000e+00   0.000e+00
   4.522e-01   0.000e+00   0.000e+00
   4.250e-01   0.000e+00   0.000e+00
   1.644e-02   0.000e+00   0.000e+00
   1.734e-02   0.000e+00   0.000e+00
   2.033e-02   0.000e+00   0.000e+00
   4.522e-01   0.000e+00   0.000e+00
   4.530e-01   0.000e+00   0.000e+00
   4.419e-01   0.000e+00   0.000e+00
   2.203e-02   0.000e+00   0.000e+00
   2.033e-02   0.000e+00   0.000e+00
   1.734e-02   0.000e+00   0.000e+00
   1.739e-02   0.000e+00   0.000e+00
   3.817e-01   0.000e+00   0.000e+00
   3.028e-01   0.000e+00   0.000e+00
   4.182e-01   0.000e+00   0.000e+00
   3.028e-01   0.000e+00   0.000e+00
   2.340e-01   0.000e+00   0.000e+00
   3.394e-01   0.000e+00   0.000e+00
   2.340e-01   0.000e+00   0.000e+00
   1.755e-01   0.000e+00   0.000e+00
   2.710e-01   0.000e+00   0.000e+00
   1.755e-01   0.000e+00   0.000e+00
   1.272e-01   0.000e+00   0.000e+00
   2.129e-01   0.000e+00   0.000e+00
   1.272e-01   0.000e+00   0.000e+00
   8.959e-02   0.000e+00   0.000e+00
   1.654e-01   0.000e+00   0.000e+00
   8.959e-02   0.000e+00   0.000e+00
   6.264e-02   0.000e+00   0.000e+00
   1.287e-01   0.000e+00   0.000e+00
   6.264e-02   0.000e+00   0.000e+00
   5.301e-02   0.000e+00   0.000e+00
   8.119e-02   0.000e+00   0.000e+00
   4.590e-02   0.000e+00   0.000e+00
   7.132e-02   0.000e+00   0.000e+00
   5.301e-02   0.000e+00   0.000e+00
   7.132e-02   0.000e+00   0.000e+00
   8.119e-02   0.000e+00   0.000e+00
   5.301e-02   0.000e+00   0.000e+00
   9.883e-02   0.000e+00   0.000e+00
   9.829e-02   0.000e+00   0.000e+00
   8.119e-02   0.000e+00   0.000e+00
   7.132e-02   0.000e+00   0.000e+00
   3.291e-03   0.000e+00   0.000e+00
   3.344e-03   0.000e+00   0.000e+00
   3.370e-03   0.000e+00   0.000e+00
   4.590e-02   0.000e+00   0.000e+00
   3.921e-02   0.000e+00   0.000e+00
   8.466e-02   0.000e+00   0.000e+00
   3.921e-02   0.000e+00   0.000e+00
   4.212e-02   0.000e+00   0.000e+00
   7.784e-02   0.000e+00   0.000e+00
   4.212e-02   0.000e+00   0.000e+00
   5.290e-02   0.000e+00   0.000e+00
   8.146e-02   0.000e+00   0.000e+00
   5.290e-02   0.000e+00   0.000e+00
   6.466e-02   0.000e+00   0.000e+00
   9.511e-02   0.000e+00   0.000e+00
   6.466e-02   0.000e+00   0.000e+00
   1.020e-01   0.000e+00   0.000e+00
   1.178e-01   0.000e+00   0.000e+00
   1.020e-01   0.000e+00   0.000e+00
   1.654e-01   0.000e+00   0.000e+00
   1.445e-01   0.000e+00   0.000e+00
   1.654e-01   0.000e+00   0.000e+00
   2.294e-01   0.000e+00   0.000e+00
   2.105e-01   0.000e+00   0.000e+00
   2.294e-01   0.000e+00   0.000e+00
   3.003e-01   0.000e+00   0.000e+00
   2.692e-01   0.000e+00   0.000e+00
   3.003e-01   0.000e+00   0.000e+00
   3.802e-01   0.000e+00   0.000e+00
   3.384e-01   0.000e+00   0.000e+00
   3.802e-01   0.000e+00   0.000e+00
   4.700e-01   0.000e+00   0.000e+00
   4.176e-01   0.000e+00   0.000e+00
   4.700e-01   0.000e+00   0.000e+00
   5.187e-01   0.000e+00   0.000e+00
   4.872e-01   0.000e+00   0.000e+00
   5.596e-01   0.000e+00   0.000e+00
   5.555e-01   0.000e+00   0.000e+00
   5.358e-01   0.000e+00   0.000e+00
   5.187e-01   0.000e+00   0.000e+00
   2.799e-02   0.000e+00   0.000e+00
   2.693e-02   0.000e+00   0.000e+00
   2.649e-02   0.000e+00   0.000e+00
   5.358e-01   0.000e+00   0.000e+00
   4.872e-01   0.000e+00   0.000e+00
   5.187e-01   0.000e+00   0.000e+00
   5.070e-01   0.000e+00   0.000e+00
   4.872e-01   0.000e+00   0.000e+00
   5.358e-01   0.000e+00   0.000e+00
   2.799e-02   0.000e+00   0.000e+00
   4.092e-02   0.000e+00   0.000e+00
   3.212e-02   0.000e+00   0.000e+00
   4.092e-02   0.000e+00   0.000e+00
   5.801e-02   0.000e+00   0.000e+00
   4.586e-02   0.000e+00   0.000e+00
   5.801e-02   0.000e+00   0.000e+00
   7.999e-02   0.000e+00   0.000e+00
   6.384e-02   0.000e+00   0.000e+00
   7.999e-02   0.000e+00   0.000e+00
   1.077e-01   0.000e+00   0.000e+00
   8.679e-02   0.000e+00   0.000e+00
   1.077e-01   0.000e+00   0.000e+00
   1.419e-01   0.000e+00   0.000e+00
   1.155e-01   0.000e+00   0.000e+00
   1.509e-01   0.000e+00   0.000e+00
   1.156e-01   0.000e+00   0.000e+00
   1.628e-01   0.000e+00   0.000e+00
   1.156e-01   0.000e+00   0.000e+00
   8.689e-02   0.000e+00   0.000e+00
   1.260e-01   0.000e+00   0.000e+00
   8.689e-02   0.000e+00   0.000e+00
   6.398e-02   0.000e+00   0.000e+00
   9.597e-02   0.000e+00   0.000e+00
   6.398e-02   0.000e+00   0.000e+00
   4.602e-02   0.000e+00   0.000e+00
   7.179e-02   0.000e+00   0.000e+00
   4.602e-02   0.000e+00   0.000e+00
   3.227e-02   0.000e+00   0.000e+00
   5.264e-02   0.000e+00   0.000e+00
   3.227e-02   0.000e+00   0.000e+00
   2.203e-02   0.000e+00   0.000e+00
   3.779e-02   0.000e+00   0.000e+00
   2.203e-02   0.000e+00   0.000e+00
   1.803e-02   0.000e+00   0.000e+00
   2.408e-02   0.000e+00   0.000e+00
   4.182e-01   0.000e+00   0.000e+00
   4.425e-01   0.000e+00   0.000e+00
   4.493e-01   0.000e+00   0.000e+00
   1.646e-02   0.000e+00   0.000e+00
   1.704e-02   0.000e+00   0.000e+00
   1.984e-02   0.000e+00   0.000e+00
   1.803e-02   0.000e+00   0.000e+00
   1.984e-02   0.000e+00   0.000e+00
   2.408e-02   0.000e+00   0.000e+00
   1.803e-02   0.000e+00   0.000e+00
   2.652e-02   0.000e+00   0.000e+00
   2.408e-02   0.000e+00   0.000e+00
   1.984e-02   0.000e+00   0.000e+00
   4.182e-01   0.000e+00   0.000e+00
   3.775e-01   0.000e+00   0.000e+00
   4.325e-01   0.000e+00   0.000e+00
   4.269e-01   0.000e+00   0.000e+00
   1.567e-02   0.000e+00   0.000e+00
   1.523e-02   0.000e+00   0.000e+00
   1.626e-02   0.000e+00   0.000e+00
   3.394e-01   0.000e+00   0.000e+00
   3.998e-01   0.000e+00   0.000e+00
   3.775e-01   0.000e+00   0.000e+00
   3.998e-01   0.000e+00   0.000e+00
   4.269e-01   0.000e+00   0.000e+00
   4.132e-01   0.000e+00   0.000e+00
   3.775e-01   0.000e+00   0.000e+00
   1.523e-02   0.000e+00   0.000e+00
   1.419e-02   0.000e+00   0.000e+00
   1.626e-02   0.000e+00   0.000e+00
   4.132e-01   0.000e+00   0.000e+00
   4.068e-01   0.000e+00   0.000e+00
   3.998e-01   0.000e+00   0.000e+00
   1.820e-02   0.000e+00   0.000e+00
   1.626e-02   0.000e+00   0.000e+00
   1.419e-02   0.000e+00   0.000e+00
   1.372e-02   0.000e+00   0.000e+00
   3.394e-01   0.000e+00   0.000e+00
   3.039e-01   0.000e+00   0.000e+00
   3.618e-01   0.000e+00   0.000e+00
   2.710e-01   0.000e+00   0.000e+00
   3.263e-01   0.000e+00   0.000e+00
   3.039e-01   0.000e+00   0.000e+00
   3.263e-01   0.000e+00   0.000e+00
   3.618e-01   0.000e+00   0.000e+00
   3.039e-01   0.000e+00   0.000e+00
   3.718e-01   0.000e+00   0.000e+00
   3.549e-01   0.000e+00   0.000e+00
   3.618e-01   0.000e+00   0.000e+00
   3.263e-01   0.000e+00   0.000e+00
   1.227e-02   0.000e+00   0.000e+00
   1.134e-02   0.000e+00   0.000e+00
   1.029e-02   0.000e+00   0.000e+00
   2.710e-01   0.000e+00   0.000e+00
   2.407e-01   0.000e+00   0.000e+00
   2.934e-01   0.000e+00   0.000e+00
   2.129e-01   0.000e+00   0.000e+00
   2.632e-01   0.000e+00   0.000e+00
   2.407e-01   0.000e+00   0.000e+00
   2.632e-01   0.000e+00   0.000e+00
   2.934e-01   0.000e+00   0.000e+00
   2.407e-01   0.000e+00   0.000e+00
   3.072e-01   0.000e+00   0.000e+00
   2.921e-01   0.000e+00   0.000e+00
   2.934e-01   0.000e+00   0.000e+00
   2.632e-01   0.000e+00   0.000e+00
   8.216e-03   0.000e+00   0.000e+00
   7.685e-03   0.000e+00   0.000e+00
   6.967e-03   0.000e+00   0.000e+00
   2.129e-01   0.000e+00   0.000e+00
   1.878e-01   0.000e+00   0.000e+00
   2.356e-01   0.000e+00   0.000e+00
   1.654e-01   0.000e+00   0.000e+00
   2.106e-01   0.000e+00   0.000e+00
   1.878e-01   0.000e+00   0.000e+00
   2.106e-01   0.000e+00   0.000e+00
   2.356e-01   0.000e+00   0.000e+00
   1.878e-01   0.000e+00   0.000e+00
   2.446e-01   0.000e+00   0.000e+00
   2.212e-01   0.000e+00   0.000e+00
   2.356e-01   0.000e+00   0.000e+00
   2.106e-01   0.000e+00   0.000e+00
   5.623e-03   0.000e+00   0.000e+00
   5.095e-03   0.000e+00   0.000e+00
   4.376e-03   0.000e+00   0.000e+00
   1.654e-01   0.000e+00   0.000e+00
   1.457e-01   0.000e+00   0.000e+00
   1.867e-01   0.000e+00   0.000e+00
   1.841e-01   0.000e+00   0.000e+00
   3.597e-03   0.000e+00   0.000e+00
   3.552e-03   0.000e+00   0.000e+00
   3.622e-03   0.000e+00   0.000e+00
   1.287e-01   0.000e+00   0.000e+00
   1.470e-01   0.000e+00   0.000e+00
   1.602e-01   0.000e+00   0.000e+00
   1.457e-01   0.000e+00   0.000e+00
   3.137e-03   0.000e+00   0.000e+00
   3.232e-03   0.000e+00   0.000e+00
   3.307e-03   0.000e+00   0.000e+00
   1.841e-01   0.000e+00   0.000e+00
   1.602e-01   0.000e+00   0.000e+00
   1.457e-01   0.000e+00   0.000e+00
   3.307e-03   0.000e+00   0.000e+00
   3.622e-03   0.000e+00   0.000e+00
   3.552e-03   0.000e+00   0.000e+00
   3.232e-03   0.000e+00   0.000e+00
   4.116e-03   0.000e+00   0.000e+00
   3.622e-03   0.000e+00   0.000e+00
   3.307e-03   0.000e+00   0.000e+00
   1.287e-01   0.000e+00   0.000e+00
   1.144e-01   0.000e+00   0.000e+00
   1.359e-01   0.000e+00   0.000e+00
   1.146e-01   0.000e+00   0.000e+00
   3.112e-03   0.000e+00   0.000e+00
   3.176e-03   0.000e+00   0.000e+00
   3.137e-03   0.000e+00   0.000e+00
   1.141e-01   0.000e+00   0.000e+00
   1.145e-01   0.000e+00   0.000e+00
   1.144e-01   0.000e+00   0.000e+00
   3.291e-03   0.000e+00   0.000e+00
   3.069e-03   0.000e+00   0.000e+00
   3.180e-03   0.000e+00   0.000e+00
   3.177e-03   0.000e+00   0.000e+00
   1.146e-01   0.000e+00   0.000e+00
   1.145e-01   0.000e+00   0.000e+00
   1.144e-01   0.000e+00   0.000e+00
   3.069e-03   0.000e+00   0.000e+00
   3.137e-03   0.000e+00   0.000e+00
   3.176e-03   0.000e+00   0.000e+00
   3.177e-03   0.000e+00   0.000e+00
   3.366e-03   0.000e+00   0.000e+00
   3.137e-03   0.000e+00   0.000e+00
   3.069e-03   0.000e+00   0.000e+00
   9.972e-02   0.000e+00   0.000e+00
   1.053e-01   0.000e+00   0.000e+00
   9.230e-02   0.000e+00   0.000e+00
   3.291e-03   0.000e+00   0.000e+00
   3.321e-03   0.000e+00   0.000e+00
   3.224e-03   0.000e+00   0.000e+00
   3.070e-03   0.000e+00   0.000e+00
   8.466e-02   0.000e+00   0.000e+00
   1.153e-01   0.000e+00   0.000e+00
   9.230e-02   0.000e+00   0.000e+00
   1.153e-01   0.000e+00   0.000e+00
   1.053e-01   0.000e+00   0.000e+00
   1.181e-01   0.000e+00   0.000e+00
   9.230e-02   0.000e+00   0.000e+00
   3.224e-03   0.000e+00   0.000e+00
   3.095e-03   0.000e+00   0.000e+00
   3.070e-03   0.000e+00   0.000e+00
   1.181e-01   0.000e+00   0.000e+00
   1.247e-01   0.000e+00   0.000e+00
   1.153e-01   0.000e+00   0.000e+00
   3.086e-03   0.000e+00   0.000e+00
   3.070e-03   0.000e+00   0.000e+00
   3.095e-03   0.000e+00   0.000e+00
   3.058e-03   0.000e+00   0.000e+00
   8.466e-02   0.000e+00   0.000e+00
   7.784e-02   0.000e+00   0.000e+00
   1.333e-01   0.000e+00   0.000e+00
   7.784e-02   0.000e+00   0.000e+00
   8.146e-02   0.000e+00   0.000e+00
   1.270e-01   0.000e+00   0.000e+00
   8.146e-02   0.000e+00   0.000e+00
   9.511e-02   0.000e+00   0.000e+00
   1.318e-01   0.000e+00   0.000e+00
   9.511e-02   0.000e+00   0.000e+00
   1.178e-01   0.000e+00   0.000e+00
   1.484e-01   0.000e+00   0.000e+00
   1.178e-01   0.000e+00   0.000e+00
   1.384e-01   0.000e+00   0.000e+00
   1.239e-01   0.000e+00   0.000e+00
   9.733e-03   0.000e+00   0.000e+00
   5.035e-03   0.000e+00   0.000e+00
   1.690e-02   0.000e+00   0.000e+00
   5.656e-03   0.000e+00   0.000e+00
   1.445e-01   0.000e+00   0.000e+00
   1.624e-01   0.000e+00   0.000e+00
   1.703e-01   0.000e+00   0.000e+00
   8.647e-03   0.000e+00   0.000e+00
   1.591e-02   0.000e+00   0.000e+00
   8.232e-03   0.000e+00   0.000e+00
   1.690e-02   0.000e+00   0.000e+00
   8.232e-03   0.000e+00   0.000e+00
   5.656e-03   0.000e+00   0.000e+00
   1.690e-02   0.000e+00   0.000e+00
   7.230e-03   0.000e+00   0.000e+00
   5.656e-03   0.000e+00   0.000e+00
   8.232e-03   0.000e+00   0.000e+00
   1.445e-01   0.000e+00   0.000e+00
   1.805e-01   0.000e+00   0.000e+00
   1.609e-01   0.000e+00   0.000e+00
   1.921e-01   0.000e+00   0.000e+00
   8.053e-03   0.000e+00   0.000e+00
   5.879e-03   0.000e+00   0.000e+00
   6.240e-03   0.000e+00   0.000e+00
   2.105e-01   0.000e+00   0.000e+00
   2.087e-01   0.000e+00   0.000e+00
   2.031e-01   0.000e+00   0.000e+00
   1.805e-01   0.000e+00   0.000e+00
   5.242e-03   0.000e+00   0.000e+00
   5.298e-03   0.000e+00   0.000e+00
   5.700e-03   0.000e+00   0.000e+00
   1.921e-01   0.000e+00   0.000e+00
   2.031e-01   0.000e+00   0.000e+00
   1.805e-01   0.000e+00   0.000e+00
   5.700e-03   0.000e+00   0.000e+00
   6.240e-03   0.000e+00   0.000e+00
   5.879e-03   0.000e+00   0.000e+00
   5.298e-03   0.000e+00   0.000e+00
   6.856e-03   0.000e+00   0.000e+00
   6.240e-03   0.000e+00   0.000e+00
   5.700e-03   0.000e+00   0.000e+00
   2.105e-01   0.000e+00   0.000e+00
   2.385e-01   0.000e+00   0.000e+00
   2.314e-01   0.000e+00   0.000e+00
   2.366e-01   0.000e+00   0.000e+00
   5.394e-03   0.000e+00   0.000e+00
   5.540e-03   0.000e+00   0.000e+00
   5.625e-03   0.000e+00   0.000e+00
   2.692e-01   0.000e+00   0.000e+00
   2.639e-01   0.000e+00   0.000e+00
   2.385e-01   0.000e+00   0.000e+00
   2.639e-01   0.000e+00   0.000e+00
   2.366e-01   0.000e+00   0.000e+00
   2.566e-01   0.000e+00   0.000e+00
   2.385e-01   0.000e+00   0.000e+00
   5.540e-03   0.000e+00   0.000e+00
   6.169e-03   0.000e+00   0.000e+00
   5.625e-03   0.000e+00   0.000e+00
   2.566e-01   0.000e+00   0.000e+00
   2.638e-01   0.000e+00   0.000e+00
   2.639e-01   0.000e+00   0.000e+00
   6.822e-03   0.000e+00   0.000e+00
   5.625e-03   0.000e+00   0.000e+00
   6.169e-03   0.000e+00   0.000e+00
   6.423e-03   0.000e+00   0.000e+00
   2.692e-01   0.000e+00   0.000e+00
   3.025e-01   0.000e+00   0.000e+00
   2.935e-01   0.000e+00   0.000e+00
   3.384e-01   0.000e+00   0.000e+00
   3.262e-01   0.000e+00   0.000e+00
   3.025e-01   0.000e+00   0.000e+00
   3.262e-01   0.000e+00   0.000e+00
   2.935e-01   0.000e+00   0.000e+00
   3.025e-01   0.000e+00   0.000e+00
   3.009e-01   0.000e+00   0.000e+00
   3.231e-01   0.000e+00   0.000e+00
   2.935e-01   0.000e+00   0.000e+00
   3.262e-01   0.000e+00   0.000e+00
   8.830e-03   0.000e+00   0.000e+00
   7.889e-03   0.000e+00   0.000e+00
   8.922e-03   0.000e+00   0.000e+00
   3.384e-01   0.000e+00   0.000e+00
   3.767e-01   0.000e+00   0.000e+00
   3.616e-01   0.000e+00   0.000e+00
   4.176e-01   0.000e+00   0.000e+00
   3.996e-01   0.000e+00   0.000e+00
   3.767e-01   0.000e+00   0.000e+00
   3.996e-01   0.000e+00   0.000e+00
   3.616e-01   0.000e+00   0.000e+00
   3.767e-01   0.000e+00   0.000e+00
   3.753e-01   0.000e+00   0.000e+00
   3.922e-01   0.000e+00   0.000e+00
   3.616e-01   0.000e+00   0.000e+00
   3.996e-01   0.000e+00   0.000e+00
   1.261e-02   0.000e+00   0.000e+00
   1.183e-02   0.000e+00   0.000e+00
   1.291e-02   0.000e+00   0.000e+00
   4.176e-01   0.000e+00   0.000e+00
   4.610e-01   0.000e+00   0.000e+00
   4.403e-01   0.000e+00   0.000e+00
   5.070e-01   0.000e+00   0.000e+00
   4.836e-01   0.000e+00   0.000e+00
   4.610e-01   0.000e+00   0.000e+00
   4.836e-01   0.000e+00   0.000e+00
   4.403e-01   0.000e+00   0.000e+00
   4.610e-01   0.000e+00   0.000e+00
   4.524e-01   0.000e+00   0.000e+00
   4.765e-01   0.000e+00   0.000e+00
   4.403e-01   0.000e+00   0.000e+00
   4.836e-01   0.000e+00   0.000e+00
   1.837e-02   0.000e+00   0.000e+00
   1.729e-02   0.000e+00   0.000e+00
   1.927e-02   0.000e+00   0.000e+00
   5.070e-01   0.000e+00   0.000e+00
   5.556e-01   0.000e+00   0.000e+00
   5.279e-01   0.000e+00   0.000e+00
   5.359e-01   0.000e+00   0.000e+00
   2.392e-02   0.000e+00   0.000e+00
   2.468e-02   0.000e+00   0.000e+00
   2.407e-02   0.000e+00   0.000e+00
   5.659e-01   0.000e+00   0.000e+00
   5.604e-01   0.000e+00   0.000e+00
   5.556e-01   0.000e+00   0.000e+00
   3.212e-02   0.000e+00   0.000e+00
   2.900e-02   0.000e+00   0.000e+00
   2.769e-02   0.000e+00   0.000e+00
   2.713e-02   0.000e+00   0.000e+00
   5.359e-01   0.000e+00   0.000e+00
   5.604e-01   0.000e+00   0.000e+00
   5.556e-01   0.000e+00   0.000e+00
   2.900e-02   0.000e+00   0.000e+00
   2.407e-02   0.000e+00   0.000e+00
   2.468e-02   0.000e+00   0.000e+00
   2.713e-02   0.000e+00   0.000e+00
   2.658e-02   0.000e+00   0.000e+00
   2.407e-02   0.000e+00   0.000e+00
   2.900e-02   0.000e+00   0.000e+00
   3.212e-02   0.000e+00   0.000e+00
   4.586e-02   0.000e+00   0.000e+00
   3.777e-02   0.000e+00   0.000e+00
   4.586e-02   0.000e+00   0.000e+00
   6.384e-02   0.000e+00   0.000e+00
   5.259e-02   0.000e+00   0.000e+00
   6.384e-02   0.000e+00   0.000e+00
   8.679e-02   0.000e+00   0.000e+00
   7.172e-02   0.000e+00   0.000e+00
   8.679e-02   0.000e+00   0.000e+00
   1.155e-01   0.000e+00   0.000e+00
   9.592e-02   0.000e+00   0.000e+00
   1.155e-01   0.000e+00   0.000e+00
   1.509e-01   0.000e+00   0.000e+00
   1.260e-01   0.000e+00   0.000e+00
   1.628e-01   0.000e+00   0.000e+00
   1.260e-01   0.000e+00   0.000e+00
   1.780e-01   0.000e+00   0.000e+00
   1.260e-01   0.000e+00   0.000e+00
   9.597e-02   0.000e+00   0.000e+00
   1.394e-01   0.000e+00   0.000e+00
   9.597e-02   0.000e+00   0.000e+00
   7.179e-02   0.000e+00   0.000e+00
   1.077e-01   0.000e+00   0.000e+00
   7.179e-02   0.000e+00   0.000e+00
   5.264e-02   0.000e+00   0.000e+00
   8.196e-02   0.000e+00   0.000e+00
   5.264e-02   0.000e+00   0.000e+00
   3.779e-02   0.000e+00   0.000e+00
   6.138e-02   0.000e+00   0.000e+00
   3.779e-02   0.000e+00   0.000e+00
   2.652e-02   0.000e+00   0.000e+00
   4.520e-02   0.000e+00   0.000e+00
   2.652e-02   0.000e+00   0.000e+00
   1.820e-02   0.000e+00   0.000e+00
   3.271e-02   0.000e+00   0.000e+00
   1.820e-02   0.000e+00   0.000e+00
   1.227e-02   0.000e+00   0.000e+00
   2.329e-02   0.000e+00   0.000e+00
   1.227e-02   0.000e+00   0.000e+00
   8.216e-03   0.000e+00   0.000e+00
   1.637e-02   0.000e+00   0.000e+00
   8.216e-03   0.000e+00   0.000e+00
   5.623e-03   0.000e+00   0.000e+00
   1.145e-02   0.000e+00   0.000e+00
   5.623e-03   0.000e+00   0.000e+00
   4.116e-03   0.000e+00   0.000e+00
   8.100e-03   0.000e+00   0.000e+00
   4.116e-03   0.000e+00   0.000e+00
   3.366e-03   0.000e+00   0.000e+00
   5.934e-03   0.000e+00   0.000e+00
   3.366e-03   0.000e+00   0.000e+00
   3.086e-03   0.000e+00   0.000e+00
   4.635e-03   0.000e+00   0.000e+00
   1.430e-01   0.000e+00   0.000e+00
   1.500e-01   0.000e+00   0.000e+00
   1.406e-01   0.000e+00   0.000e+00
   3.086e-03   0.000e+00   0.000e+00
   3.052e-03   0.000e+00   0.000e+00
   3.080e-03   0.000e+00   0.000e+00
   3.361e-03   0.000e+00   0.000e+00
   1.333e-01   0.000e+00   0.000e+00
   1.683e-01   0.000e+00   0.000e+00
   1.406e-01   0.000e+00   0.000e+00
   1.683e-01   0.000e+00   0.000e+00
   1.500e-01   0.000e+00   0.000e+00
   1.707e-01   0.000e+00   0.000e+00
   1.406e-01   0.000e+00   0.000e+00
   3.080e-03   0.000e+00   0.000e+00
   3.268e-03   0.000e+00   0.000e+00
   3.361e-03   0.000e+00   0.000e+00
   1.707e-01   0.000e+00   0.000e+00
   1.783e-01   0.000e+00   0.000e+00
   1.683e-01   0.000e+00   0.000e+00
   3.939e-03   0.000e+00   0.000e+00
   3.361e-03   0.000e+00   0.000e+00
   3.268e-03   0.000e+00   0.000e+00
   3.374e-03   0.000e+00   0.000e+00
   1.333e-01   0.000e+00   0.000e+00
   1.270e-01   0.000e+00   0.000e+00
   1.918e-01   0.000e+00   0.000e+00
   1.270e-01   0.000e+00   0.000e+00
   1.318e-01   0.000e+00   0.000e+00
   1.861e-01   0.000e+00   0.000e+00
   1.318e-01   0.000e+00   0.000e+00
   1.484e-01   0.000e+00   0.000e+00
   1.914e-01   0.000e+00   0.000e+00
   1.484e-01   0.000e+00   0.000e+00
   1.616e-01   0.000e+00   0.000e+00
   1.774e-01   0.000e+00   0.000e+00
   1.818e-01   0.000e+00   0.000e+00
   1.742e-01   0.000e+00   0.000e+00
   1.909e-01   0.000e+00   0.000e+00
   1.616e-01   0.000e+00   0.000e+00
   7.230e-03   0.000e+00   0.000e+00
   6.804e-03   0.000e+00   0.000e+00
   7.263e-03   0.000e+00   0.000e+00
   1.909e-01   0.000e+00   0.000e+00
   1.774e-01   0.000e+00   0.000e+00
   1.616e-01   0.000e+00   0.000e+00
   2.082e-01   0.000e+00   0.000e+00
   1.774e-01   0.000e+00   0.000e+00
   1.909e-01   0.000e+00   0.000e+00
   7.230e-03   0.000e+00   0.000e+00
   6.856e-03   0.000e+00   0.000e+00
   6.801e-03   0.000e+00   0.000e+00
   6.856e-03   0.000e+00   0.000e+00
   6.822e-03   0.000e+00   0.000e+00
   7.793e-03   0.000e+00   0.000e+00
   6.822e-03   0.000e+00   0.000e+00
   8.830e-03   0.000e+00   0.000e+00
   9.343e-03   0.000e+00   0.000e+00
   8.830e-03   0.000e+00   0.000e+00
   1.261e-02   0.000e+00   0.000e+00
   1.222e-02   0.000e+00   0.000e+00
   1.261e-02   0.000e+00   0.000e+00
   1.837e-02   0.000e+00   0.000e+00
   1.685e-02   0.000e+00   0.000e+00
   1.837e-02   0.000e+00   0.000e+00
   2.658e-02   0.000e+00   0.000e+00
   2.358e-02   0.000e+00   0.000e+00
   2.658e-02   0.000e+00   0.000e+00
   3.777e-02   0.000e+00   0.000e+00
   3.287e-02   0.000e+00   0.000e+00
   3.777e-02   0.000e+00   0.000e+00
   5.259e-02   0.000e+00   0.000e+00
   4.527e-02   0.000e+00   0.000e+00
   5.259e-02   0.000e+00   0.000e+00
   7.172e-02   0.000e+00   0.000e+00
   6.140e-02   0.000e+00   0.000e+00
   7.172e-02   0.000e+00   0.000e+00
   9.592e-02   0.000e+00   0.000e+00
   8.196e-02   0.000e+00   0.000e+00
   9.592e-02   0.000e+00   0.000e+00
   1.260e-01   0.000e+00   0.000e+00
   1.077e-01   0.000e+00   0.000e+00
   1.260e-01   0.000e+00   0.000e+00
   1.628e-01   0.000e+00   0.000e+00
   1.394e-01   0.000e+00   0.000e+00
   1.780e-01   0.000e+00   0.000e+00
   1.394e-01   0.000e+00   0.000e+00
   1.968e-01   0.000e+00   0.000e+00
   1.394e-01   0.000e+00   0.000e+00
   1.077e-01   0.000e+00   0.000e+00
   1.561e-01   0.000e+00   0.000e+00
   1.077e-01   0.000e+00   0.000e+00
   8.196e-02   0.000e+00   0.000e+00
   1.224e-01   0.000e+00   0.000e+00
   8.196e-02   0.000e+00   0.000e+00
   6.138e-02   0.000e+00   0.000e+00
   9.488e-02   0.000e+00   0.000e+00
   6.138e-02   0.000e+00   0.000e+00
   4.520e-02   0.000e+00   0.000e+00
   7.262e-02   0.000e+00   0.000e+00
   4.520e-02   0.000e+00   0.000e+00
   3.271e-02   0.000e+00   0.000e+00
   5.488e-02   0.000e+00   0.000e+00
   3.271e-02   0.000e+00   0.000e+00
   2.329e-02   0.000e+00   0.000e+00
   4.098e-02   0.000e+00   0.000e+00
   2.329e-02   0.000e+00   0.000e+00
   1.637e-02   0.000e+00   0.000e+00
   3.028e-02   0.000e+00   0.000e+00
   1.637e-02   0.000e+00   0.000e+00
   1.145e-02   0.000e+00   0.000e+00
   2.222e-02   0.000e+00   0.000e+00
   1.145e-02   0.000e+00   0.000e+00
   8.100e-03   0.000e+00   0.000e+00
   1.629e-02   0.000e+00   0.000e+00
   8.100e-03   0.000e+00   0.000e+00
   5.934e-03   0.000e+00   0.000e+00
   1.207e-02   0.000e+00   0.000e+00
   5.934e-03   0.000e+00   0.000e+00
   4.635e-03   0.000e+00   0.000e+00
   9.172e-03   0.000e+00   0.000e+00
   4.635e-03   0.000e+00   0.000e+00
   3.939e-03   0.000e+00   0.000e+00
   7.285e-03   0.000e+00   0.000e+00
   2.008e-01   0.000e+00   0.000e+00
   2.081e-01   0.000e+00   0.000e+00
   1.987e-01   0.000e+00   0.000e+00
   3.939e-03   0.000e+00   0.000e+00
   3.790e-03   0.000e+00   0.000e+00
   3.952e-03   0.000e+00   0.000e+00
   4.853e-03   0.000e+00   0.000e+00
   1.918e-01   0.000e+00   0.000e+00
   2.316e-01   0.000e+00   0.000e+00
   1.987e-01   0.000e+00   0.000e+00
   2.316e-01   0.000e+00   0.000e+00
   2.081e-01   0.000e+00   0.000e+00
   2.332e-01   0.000e+00   0.000e+00
   1.987e-01   0.000e+00   0.000e+00
   3.952e-03   0.000e+00   0.000e+00
   4.630e-03   0.000e+00   0.000e+00
   4.853e-03   0.000e+00   0.000e+00
   2.332e-01   0.000e+00   0.000e+00
   2.390e-01   0.000e+00   0.000e+00
   2.316e-01   0.000e+00   0.000e+00
   6.157e-03   0.000e+00   0.000e+00
   4.853e-03   0.000e+00   0.000e+00
   4.630e-03   0.000e+00   0.000e+00
   4.814e-03   0.000e+00   0.000e+00
   1.918e-01   0.000e+00   0.000e+00
   1.861e-01   0.000e+00   0.000e+00
   2.604e-01   0.000e+00   0.000e+00
   1.861e-01   0.000e+00   0.000e+00
   1.914e-01   0.000e+00   0.000e+00
   2.550e-01   0.000e+00   0.000e+00
   1.914e-01   0.000e+00   0.000e+00
   2.082e-01   0.000e+00   0.000e+00
   2.605e-01   0.000e+00   0.000e+00
   2.082e-01   0.000e+00   0.000e+00
   2.211e-01   0.000e+00   0.000e+00
   2.414e-01   0.000e+00   0.000e+00
   2.411e-01   0.000e+00   0.000e+00
   2.320e-01   0.000e+00   0.000e+00
   2.539e-01   0.000e+00   0.000e+00
   2.211e-01   0.000e+00   0.000e+00
   6.801e-03   0.000e+00   0.000e+00
   6.810e-03   0.000e+00   0.000e+00
   6.699e-03   0.000e+00   0.000e+00
   2.539e-01   0.000e+00   0.000e+00
   2.414e-01   0.000e+00   0.000e+00
   2.211e-01   0.000e+00   0.000e+00
   2.769e-01   0.000e+00   0.000e+00
   2.414e-01   0.000e+00   0.000e+00
   2.539e-01   0.000e+00   0.000e+00
   6.801e-03   0.000e+00   0.000e+00
   7.793e-03   0.000e+00   0.000e+00
   8.721e-03   0.000e+00   0.000e+00
   7.793e-03   0.000e+00   0.000e+00
   9.343e-03   0.000e+00   0.000e+00
   1.049e-02   0.000e+00   0.000e+00
   9.343e-03   0.000e+00   0.000e+00
   1.222e-02   0.000e+00   0.000e+00
   1.311e-02   0.000e+00   0.000e+00
   1.222e-02   0.000e+00   0.000e+00
   1.685e-02   0.000e+00   0.000e+00
   1.703e-02   0.000e+00   0.000e+00
   1.685e-02   0.000e+00   0.000e+00
   2.358e-02   0.000e+00   0.000e+00
   2.272e-02   0.000e+00   0.000e+00
   2.358e-02   0.000e+00   0.000e+00
   3.287e-02   0.000e+00   0.000e+00
   3.061e-02   0.000e+00   0.000e+00
   3.287e-02   0.000e+00   0.000e+00
   4.527e-02   0.000e+00   0.000e+00
   4.119e-02   0.000e+00   0.000e+00
   4.527e-02   0.000e+00   0.000e+00
   6.140e-02   0.000e+00   0.000e+00
   5.500e-02   0.000e+00   0.000e+00
   6.140e-02   0.000e+00   0.000e+00
   8.196e-02   0.000e+00   0.000e+00
   7.268e-02   0.000e+00   0.000e+00
   8.196e-02   0.000e+00   0.000e+00
   1.077e-01   0.000e+00   0.000e+00
   9.492e-02   0.000e+00   0.000e+00
   1.077e-01   0.000e+00   0.000e+00
   1.394e-01   0.000e+00   0.000e+00
   1.225e-01   0.000e+00   0.000e+00
   1.394e-01   0.000e+00   0.000e+00
   1.780e-01   0.000e+00   0.000e+00
   1.561e-01   0.000e+00   0.000e+00
   1.968e-01   0.000e+00   0.000e+00
   1.561e-01   0.000e+00   0.000e+00
   2.196e-01   0.000e+00   0.000e+00
   1.561e-01   0.000e+00   0.000e+00
   1.224e-01   0.000e+00   0.000e+00
   1.766e-01   0.000e+00   0.000e+00
   1.224e-01   0.000e+00   0.000e+00
   9.488e-02   0.000e+00   0.000e+00
   1.406e-01   0.000e+00   0.000e+00
   9.488e-02   0.000e+00   0.000e+00
   7.262e-02   0.000e+00   0.000e+00
   1.110e-01   0.000e+00   0.000e+00
   7.262e-02   0.000e+00   0.000e+00
   5.488e-02   0.000e+00   0.000e+00
   8.677e-02   0.000e+00   0.000e+00
   5.488e-02   0.000e+00   0.000e+00
   4.098e-02   0.000e+00   0.000e+00
   6.726e-02   0.000e+00   0.000e+00
   4.098e-02   0.000e+00   0.000e+00
   3.028e-02   0.000e+00   0.000e+00
   5.174e-02   0.000e+00   0.000e+00
   3.028e-02   0.000e+00   0.000e+00
   2.222e-02   0.000e+00   0.000e+00
   3.958e-02   0.000e+00   0.000e+00
   2.222e-02   0.000e+00   0.000e+00
   1.629e-02   0.000e+00   0.000e+00
   3.023e-02   0.000e+00   0.000e+00
   1.629e-02   0.000e+00   0.000e+00
   1.207e-02   0.000e+00   0.000e+00
   2.317e-02   0.000e+00   0.000e+00
   1.207e-02   0.000e+00   0.000e+00
   9.172e-03   0.000e+00   0.000e+00
   1.797e-02   0.000e+00   0.000e+00
   9.172e-03   0.000e+00   0.000e+00
   7.285e-03   0.000e+00   0.000e+00
   1.426e-02   0.000e+00   0.000e+00
   7.285e-03   0.000e+00   0.000e+00
   6.157e-03   0.000e+00   0.000e+00
   1.173e-02   0.000e+00   0.000e+00
   2.678e-01   0.000e+00   0.000e+00
   2.706e-01   0.000e+00   0.000e+00
   2.671e-01   0.000e+00   0.000e+00
   6.157e-03   0.000e+00   0.000e+00
   5.847e-03   0.000e+00   0.000e+00
   5.954e-03   0.000e+00   0.000e+00
   7.896e-03   0.000e+00   0.000e+00
   2.604e-01   0.000e+00   0.000e+00
   3.024e-01   0.000e+00   0.000e+00
   2.884e-01   0.000e+00   0.000e+00
   2.671e-01   0.000e+00   0.000e+00
   7.343e-03   0.000e+00   0.000e+00
   6.697e-03   0.000e+00   0.000e+00
   7.475e-03   0.000e+00   0.000e+00
   2.706e-01   0.000e+00   0.000e+00
   2.884e-01   0.000e+00   0.000e+00
   2.671e-01   0.000e+00   0.000e+00
   7.475e-03   0.000e+00   0.000e+00
   7.896e-03   0.000e+00   0.000e+00
   5.954e-03   0.000e+00   0.000e+00
   6.697e-03   0.000e+00   0.000e+00
   1.013e-02   0.000e+00   0.000e+00
   7.896e-03   0.000e+00   0.000e+00
   7.475e-03   0.000e+00   0.000e+00
   2.604e-01   0.000e+00   0.000e+00
   2.550e-01   0.000e+00   0.000e+00
   3.393e-01   0.000e+00   0.000e+00
   2.550e-01   0.000e+00   0.000e+00
   2.605e-01   0.000e+00   0.000e+00
   3.341e-01   0.000e+00   0.000e+00
   2.605e-01   0.000e+00   0.000e+00
   2.769e-01   0.000e+00   0.000e+00
   3.395e-01   0.000e+00   0.000e+00
   2.769e-01   0.000e+00   0.000e+00
   2.892e-01   0.000e+00   0.000e+00
   3.150e-01   0.000e+00   0.000e+00
   3.155e-01   0.000e+00   0.000e+00
   2.973e-01   0.000e+00   0.000e+00
   3.272e-01   0.000e+00   0.000e+00
   2.892e-01   0.000e+00   0.000e+00
   8.721e-03   0.000e+00   0.000e+00
   9.154e-03   0.000e+00   0.000e+00
   8.405e-03   0.000e+00   0.000e+00
   3.272e-01   0.000e+00   0.000e+00
   3.150e-01   0.000e+00   0.000e+00
   2.892e-01   0.000e+00   0.000e+00
   3.557e-01   0.000e+00   0.000e+00
   3.150e-01   0.000e+00   0.000e+00
   3.272e-01   0.000e+00   0.000e+00
   8.721e-03   0.000e+00   0.000e+00
   1.049e-02   0.000e+00   0.000e+00
   1.273e-02   0.000e+00   0.000e+00
   1.049e-02   0.000e+00   0.000e+00
   1.311e-02   0.000e+00   0.000e+00
   1.521e-02   0.000e+00   0.000e+00
   1.311e-02   0.000e+00   0.000e+00
   1.703e-02   0.000e+00   0.000e+00
   1.878e-02   0.000e+00   0.000e+00
   1.703e-02   0.000e+00   0.000e+00
   2.272e-02   0.000e+00   0.000e+00
   2.381e-02   0.000e+00   0.000e+00
   2.272e-02   0.000e+00   0.000e+00
   3.061e-02   0.000e+00   0.000e+00
   3.070e-02   0.000e+00   0.000e+00
   3.061e-02   0.000e+00   0.000e+00
   4.119e-02   0.000e+00   0.000e+00
   3.992e-02   0.000e+00   0.000e+00
   4.119e-02   0.000e+00   0.000e+00
   5.500e-02   0.000e+00   0.000e+00
   5.197e-02   0.000e+00   0.000e+00
   5.500e-02   0.000e+00   0.000e+00
   7.268e-02   0.000e+00   0.000e+00
   6.741e-02   0.000e+00   0.000e+00
   7.268e-02   0.000e+00   0.000e+00
   9.492e-02   0.000e+00   0.000e+00
   8.687e-02   0.000e+00   0.000e+00
   9.492e-02   0.000e+00   0.000e+00
   1.225e-01   0.000e+00   0.000e+00
   1.110e-01   0.000e+00   0.000e+00
   1.225e-01   0.000e+00   0.000e+00
   1.561e-01   0.000e+00   0.000e+00
   1.407e-01   0.000e+00   0.000e+00
   1.561e-01   0.000e+00   0.000e+00
   1.968e-01   0.000e+00   0.000e+00
   1.766e-01   0.000e+00   0.000e+00
   2.196e-01   0.000e+00   0.000e+00
   1.766e-01   0.000e+00   0.000e+00
   2.470e-01   0.000e+00   0.000e+00
   1.766e-01   0.000e+00   0.000e+00
   1.406e-01   0.000e+00   0.000e+00
   2.012e-01   0.000e+00   0.000e+00
   1.406e-01   0.000e+00   0.000e+00
   1.110e-01   0.000e+00   0.000e+00
   1.628e-01   0.000e+00   0.000e+00
   1.110e-01   0.000e+00   0.000e+00
   8.677e-02   0.000e+00   0.000e+00
   1.307e-01   0.000e+00   0.000e+00
   8.677e-02   0.000e+00   0.000e+00
   6.726e-02   0.000e+00   0.000e+00
   1.044e-01   0.000e+00   0.000e+00
   6.726e-02   0.000e+00   0.000e+00
   5.174e-02   0.000e+00   0.000e+00
   8.284e-02   0.000e+00   0.000e+00
   5.174e-02   0.000e+00   0.000e+00
   3.958e-02   0.000e+00   0.000e+00
   6.550e-02   0.000e+00   0.000e+00
   3.958e-02   0.000e+00   0.000e+00
   3.023e-02   0.000e+00   0.000e+00
   5.171e-02   0.000e+00   0.000e+00
   3.023e-02   0.000e+00   0.000e+00
   2.317e-02   0.000e+00   0.000e+00
   4.090e-02   0.000e+00   0.000e+00
   2.317e-02   0.000e+00   0.000e+00
   1.797e-02   0.000e+00   0.000e+00
   3.257e-02   0.000e+00   0.000e+00
   1.797e-02   0.000e+00   0.000e+00
   1.426e-02   0.000e+00   0.000e+00
   2.628e-02   0.000e+00   0.000e+00
   1.426e-02   0.000e+00   0.000e+00
   1.173e-02   0.000e+00   0.000e+00
   2.168e-02   0.000e+00   0.000e+00
   1.173e-02   0.000e+00   0.000e+00
   1.013e-02   0.000e+00   0.000e+00
   1.844e-02   0.000e+00   0.000e+00
   1.013e-02   0.000e+00   0.000e+00
   9.634e-03   0.000e+00   0.000e+00
   1.292e-02   0.000e+00   0.000e+00
   3.393e-01   0.000e+00   0.000e+00
   3.657e-01   0.000e+00   0.000e+00
   3.437e-01   0.000e+00   0.000e+00
   1.083e-02   0.000e+00   0.000e+00
   9.523e-03   0.000e+00   0.000e+00
   1.233e-02   0.000e+00   0.000e+00
   9.634e-03   0.000e+00   0.000e+00
   1.233e-02   0.000e+00   0.000e+00
   1.292e-02   0.000e+00   0.000e+00
   9.634e-03   0.000e+00   0.000e+00
   1.634e-02   0.000e+00   0.000e+00
   1.292e-02   0.000e+00   0.000e+00
   1.233e-02   0.000e+00   0.000e+00
   3.393e-01   0.000e+00   0.000e+00
   3.354e-01   0.000e+00   0.000e+00
   3.826e-01   0.000e+00   0.000e+00
   3.341e-01   0.000e+00   0.000e+00
   3.787e-01   0.000e+00   0.000e+00
   3.354e-01   0.000e+00   0.000e+00
   3.787e-01   0.000e+00   0.000e+00
   3.826e-01   0.000e+00   0.000e+00
   3.354e-01   0.000e+00   0.000e+00
   4.251e-01   0.000e+00   0.000e+00
   4.274e-01   0.000e+00   0.000e+00
   3.826e-01   0.000e+00   0.000e+00
   3.787e-01   0.000e+00   0.000e+00
   1.521e-02   0.000e+00   0.000e+00
   1.495e-02   0.000e+00   0.000e+00
   1.515e-02   0.000e+00   0.000e+00
   3.341e-01   0.000e+00   0.000e+00
   3.395e-01   0.000e+00   0.000e+00
   4.233e-01   0.000e+00   0.000e+00
   3.395e-01   0.000e+00   0.000e+00
   3.557e-01   0.000e+00   0.000e+00
   4.288e-01   0.000e+00   0.000e+00
   3.557e-01   0.000e+00   0.000e+00
   3.677e-01   0.000e+00   0.000e+00
   3.989e-01   0.000e+00   0.000e+00
   3.701e-01   0.000e+00   0.000e+00
   3.924e-01   0.000e+00   0.000e+00
   3.677e-01   0.000e+00   0.000e+00
   1.273e-02   0.000e+00   0.000e+00
   1.455e-02   0.000e+00   0.000e+00
   1.195e-02   0.000e+00   0.000e+00
   1.331e-02   0.000e+00   0.000e+00
   3.924e-01   0.000e+00   0.000e+00
   4.091e-01   0.000e+00   0.000e+00
   3.989e-01   0.000e+00   0.000e+00
   3.677e-01   0.000e+00   0.000e+00
   1.455e-02   0.000e+00   0.000e+00
   1.331e-02   0.000e+00   0.000e+00
   1.442e-02   0.000e+00   0.000e+00
   4.447e-01   0.000e+00   0.000e+00
   3.989e-01   0.000e+00   0.000e+00
   4.091e-01   0.000e+00   0.000e+00
   4.186e-01   0.000e+00   0.000e+00
   1.442e-02   0.000e+00   0.000e+00
   1.508e-02   0.000e+00   0.000e+00
   1.455e-02   0.000e+00   0.000e+00
   1.273e-02   0.000e+00   0.000e+00
   1.521e-02   0.000e+00   0.000e+00
   1.914e-02   0.000e+00   0.000e+00
   1.521e-02   0.000e+00   0.000e+00
   1.878e-02   0.000e+00   0.000e+00
   2.237e-02   0.000e+00   0.000e+00
   1.878e-02   0.000e+00   0.000e+00
   2.381e-02   0.000e+00   0.000e+00
   2.691e-02   0.000e+00   0.000e+00
   2.381e-02   0.000e+00   0.000e+00
   3.070e-02   0.000e+00   0.000e+00
   3.309e-02   0.000e+00   0.000e+00
   3.070e-02   0.000e+00   0.000e+00
   3.992e-02   0.000e+00   0.000e+00
   4.131e-02   0.000e+00   0.000e+00
   3.992e-02   0.000e+00   0.000e+00
   5.197e-02   0.000e+00   0.000e+00
   5.202e-02   0.000e+00   0.000e+00
   5.197e-02   0.000e+00   0.000e+00
   6.741e-02   0.000e+00   0.000e+00
   6.573e-02   0.000e+00   0.000e+00
   6.741e-02   0.000e+00   0.000e+00
   8.687e-02   0.000e+00   0.000e+00
   8.300e-02   0.000e+00   0.000e+00
   8.687e-02   0.000e+00   0.000e+00
   1.110e-01   0.000e+00   0.000e+00
   1.045e-01   0.000e+00   0.000e+00
   1.110e-01   0.000e+00   0.000e+00
   1.407e-01   0.000e+00   0.000e+00
   1.308e-01   0.000e+00   0.000e+00
   1.407e-01   0.000e+00   0.000e+00
   1.766e-01   0.000e+00   0.000e+00
   1.628e-01   0.000e+00   0.000e+00
   1.766e-01   0.000e+00   0.000e+00
   2.196e-01   0.000e+00   0.000e+00
   2.012e-01   0.000e+00   0.000e+00
   2.470e-01   0.000e+00   0.000e+00
   2.012e-01   0.000e+00   0.000e+00
   2.796e-01   0.000e+00   0.000e+00
   2.012e-01   0.000e+00   0.000e+00
   1.628e-01   0.000e+00   0.000e+00
   2.307e-01   0.000e+00   0.000e+00
   1.628e-01   0.000e+00   0.000e+00
   1.307e-01   0.000e+00   0.000e+00
   1.894e-01   0.000e+00   0.000e+00
   1.307e-01   0.000e+00   0.000e+00
   1.044e-01   0.000e+00   0.000e+00
   1.547e-01   0.000e+00   0.000e+00
   1.044e-01   0.000e+00   0.000e+00
   8.284e-02   0.000e+00   0.000e+00
   1.259e-01   0.000e+00   0.000e+00
   8.284e-02   0.000e+00   0.000e+00
   6.550e-02   0.000e+00   0.000e+00
   1.022e-01   0.000e+00   0.000e+00
   6.550e-02   0.000e+00   0.000e+00
   5.171e-02   0.000e+00   0.000e+00
   8.282e-02   0.000e+00   0.000e+00
   5.171e-02   0.000e+00   0.000e+00
   4.090e-02   0.000e+00   0.000e+00
   6.721e-02   0.000e+00   0.000e+00
   4.090e-02   0.000e+00   0.000e+00
   3.257e-02   0.000e+00   0.000e+00
   5.479e-02   0.000e+00   0.000e+00
   3.257e-02   0.000e+00   0.000e+00
   2.628e-02   0.000e+00   0.000e+00
   4.506e-02   0.000e+00   0.000e+00
   2.628e-02   0.000e+00   0.000e+00
   2.168e-02   0.000e+00   0.000e+00
   3.758e-02   0.000e+00   0.000e+00
   2.168e-02   0.000e+00   0.000e+00
   1.844e-02   0.000e+00   0.000e+00
   3.199e-02   0.000e+00   0.000e+00
   1.844e-02   0.000e+00   0.000e+00
   1.634e-02   0.000e+00   0.000e+00
   2.798e-02   0.000e+00   0.000e+00
   1.634e-02   0.000e+00   0.000e+00
   1.521e-02   0.000e+00   0.000e+00
   2.531e-02   0.000e+00   0.000e+00
   4.284e-01   0.000e+00   0.000e+00
   4.565e-01   0.000e+00   0.000e+00
   4.246e-01   0.000e+00   0.000e+00
   1.521e-02   0.000e+00   0.000e+00
   1.519e-02   0.000e+00   0.000e+00
   1.742e-02   0.000e+00   0.000e+00
   1.913e-02   0.000e+00   0.000e+00
   4.233e-01   0.000e+00   0.000e+00
   4.731e-01   0.000e+00   0.000e+00
   4.246e-01   0.000e+00   0.000e+00
   4.731e-01   0.000e+00   0.000e+00
   4.565e-01   0.000e+00   0.000e+00
   4.742e-01   0.000e+00   0.000e+00
   4.246e-01   0.000e+00   0.000e+00
   1.742e-02   0.000e+00   0.000e+00
   1.893e-02   0.000e+00   0.000e+00
   1.913e-02   0.000e+00   0.000e+00
   4.742e-01   0.000e+00   0.000e+00
   4.842e-01   0.000e+00   0.000e+00
   4.731e-01   0.000e+00   0.000e+00
   2.383e-02   0.000e+00   0.000e+00
   1.913e-02   0.000e+00   0.000e+00
   1.893e-02   0.000e+00   0.000e+00
   1.980e-02   0.000e+00   0.000e+00
   4.233e-01   0.000e+00   0.000e+00
   4.288e-01   0.000e+00   0.000e+00
   5.230e-01   0.000e+00   0.000e+00
   4.288e-01   0.000e+00   0.000e+00
   4.447e-01   0.000e+00   0.000e+00
   5.283e-01   0.000e+00   0.000e+00
   4.447e-01   0.000e+00   0.000e+00
   4.496e-01   0.000e+00   0.000e+00
   4.809e-01   0.000e+00   0.000e+00
   1.736e-02   0.000e+00   0.000e+00
   1.990e-02   0.000e+00   0.000e+00
   1.794e-02   0.000e+00   0.000e+00
   2.096e-02   0.000e+00   0.000e+00
   1.914e-02   0.000e+00   0.000e+00
   2.205e-02   0.000e+00   0.000e+00
   1.794e-02   0.000e+00   0.000e+00
   2.205e-02   0.000e+00   0.000e+00
   2.096e-02   0.000e+00   0.000e+00
   1.794e-02   0.000e+00   0.000e+00
   2.573e-02   0.000e+00   0.000e+00
   2.096e-02   0.000e+00   0.000e+00
   2.205e-02   0.000e+00   0.000e+00
   1.914e-02   0.000e+00   0.000e+00
   2.237e-02   0.000e+00   0.000e+00
   2.846e-02   0.000e+00   0.000e+00
   2.237e-02   0.000e+00   0.000e+00
   2.691e-02   0.000e+00   0.000e+00
   3.249e-02   0.000e+00   0.000e+00
   2.691e-02   0.000e+00   0.000e+00
   3.309e-02   0.000e+00   0.000e+00
   3.805e-02   0.000e+00   0.000e+00
   3.309e-02   0.000e+00   0.000e+00
   4.131e-02   0.000e+00   0.000e+00
   4.547e-02   0.000e+00   0.000e+00
   4.131e-02   0.000e+00   0.000e+00
   5.202e-02   0.000e+00   0.000e+00
   5.513e-02   0.000e+00   0.000e+00
   5.202e-02   0.000e+00   0.000e+00
   6.573e-02   0.000e+00   0.000e+00
   6.748e-02   0.000e+00   0.000e+00
   6.573e-02   0.000e+00   0.000e+00
   8.300e-02   0.000e+00   0.000e+00
   8.302e-02   0.000e+00   0.000e+00
   8.300e-02   0.000e+00   0.000e+00
   1.045e-01   0.000e+00   0.000e+00
   1.023e-01   0.000e+00   0.000e+00
   1.045e-01   0.000e+00   0.000e+00
   1.308e-01   0.000e+00   0.000e+00
   1.260e-01   0.000e+00   0.000e+00
   1.308e-01   0.000e+00   0.000e+00
   1.628e-01   0.000e+00   0.000e+00
   1.548e-01   0.000e+00   0.000e+00
   1.628e-01   0.000e+00   0.000e+00
   2.012e-01   0.000e+00   0.000e+00
   1.894e-01   0.000e+00   0.000e+00
   2.012e-01   0.000e+00   0.000e+00
   2.470e-01   0.000e+00   0.000e+00
   2.307e-01   0.000e+00   0.000e+00
   2.796e-01   0.000e+00   0.000e+00
   2.307e-01   0.000e+00   0.000e+00
   3.178e-01   0.000e+00   0.000e+00
   2.307e-01   0.000e+00   0.000e+00
   1.894e-01   0.000e+00   0.000e+00
   2.656e-01   0.000e+00   0.000e+00
   1.894e-01   0.000e+00   0.000e+00
   1.547e-01   0.000e+00   0.000e+00
   2.212e-01   0.000e+00   0.000e+00
   1.547e-01   0.000e+00   0.000e+00
   1.259e-01   0.000e+00   0.000e+00
   1.836e-01   0.000e+00   0.000e+00
   1.259e-01   0.000e+00   0.000e+00
   1.022e-01   0.000e+00   0.000e+00
   1.521e-01   0.000e+00   0.000e+00
   1.022e-01   0.000e+00   0.000e+00
   8.282e-02   0.000e+00   0.000e+00
   1.259e-01   0.000e+00   0.000e+00
   8.282e-02   0.000e+00   0.000e+00
   6.721e-02   0.000e+00   0.000e+00
   1.043e-01   0.000e+00   0.000e+00
   6.721e-02   0.000e+00   0.000e+00
   5.479e-02   0.000e+00   0.000e+00
   8.672e-02   0.000e+00   0.000e+00
   5.479e-02   0.000e+00   0.000e+00
   4.506e-02   0.000e+00   0.000e+00
   7.253e-02   0.000e+00   0.000e+00
   4.506e-02   0.000e+00   0.000e+00
   3.758e-02   0.000e+00   0.000e+00
   6.126e-02   0.000e+00   0.000e+00
   3.758e-02   0.000e+00   0.000e+00
   3.199e-02   0.000e+00   0.000e+00
   5.247e-02   0.000e+00   0.000e+00
   3.199e-02   0.000e+00   0.000e+00
   2.798e-02   0.000e+00   0.000e+00
   4.580e-02   0.000e+00   0.000e+00
   2.798e-02   0.000e+00   0.000e+00
   2.531e-02   0.000e+00   0.000e+00
   4.095e-02   0.000e+00   0.000e+00
   2.531e-02   0.000e+00   0.000e+00
   2.383e-02   0.000e+00   0.000e+00
   3.767e-02   0.000e+00   0.000e+00
   2.383e-02   0.000e+00   0.000e+00
   2.350e-02   0.000e+00   0.000e+00
   2.936e-02   0.000e+00   0.000e+00
   5.230e-01   0.000e+00   0.000e+00
   5.316e-01   0.000e+00   0.000e+00
   5.231e-01   0.000e+00   0.000e+00
   2.428e-02   0.000e+00   0.000e+00
   2.345e-02   0.000e+00   0.000e+00
   2.898e-02   0.000e+00   0.000e+00
   2.350e-02   0.000e+00   0.000e+00
   2.898e-02   0.000e+00   0.000e+00
   2.936e-02   0.000e+00   0.000e+00
   2.350e-02   0.000e+00   0.000e+00
   3.581e-02   0.000e+00   0.000e+00
   2.936e-02   0.000e+00   0.000e+00
   2.898e-02   0.000e+00   0.000e+00
   5.230e-01   0.000e+00   0.000e+00
   5.243e-01   0.000e+00   0.000e+00
   5.364e-01   0.000e+00   0.000e+00
   5.480e-01   0.000e+00   0.000e+00
   2.476e-02   0.000e+00   0.000e+00
   2.594e-02   0.000e+00   0.000e+00
   2.889e-02   0.000e+00   0.000e+00
   5.283e-01   0.000e+00   0.000e+00
   5.531e-01   0.000e+00   0.000e+00
   5.551e-01   0.000e+00   0.000e+00
   5.243e-01   0.000e+00   0.000e+00
   2.651e-02   0.000e+00   0.000e+00
   2.669e-02   0.000e+00   0.000e+00
   2.908e-02   0.000e+00   0.000e+00
   5.480e-01   0.000e+00   0.000e+00
   5.551e-01   0.000e+00   0.000e+00
   5.243e-01   0.000e+00   0.000e+00
   2.908e-02   0.000e+00   0.000e+00
   2.889e-02   0.000e+00   0.000e+00
   2.594e-02   0.000e+00   0.000e+00
   2.669e-02   0.000e+00   0.000e+00
   3.526e-02   0.000e+00   0.000e+00
   2.889e-02   0.000e+00   0.000e+00
   2.908e-02   0.000e+00   0.000e+00
   5.283e-01   0.000e+00   0.000e+00
   5.339e-01   0.000e+00   0.000e+00
   5.529e-01   0.000e+00   0.000e+00
   2.468e-02   0.000e+00   0.000e+00
   2.652e-02   0.000e+00   0.000e+00
   2.479e-02   0.000e+00   0.000e+00
   2.957e-02   0.000e+00   0.000e+00
   2.573e-02   0.000e+00   0.000e+00
   3.032e-02   0.000e+00   0.000e+00
   2.479e-02   0.000e+00   0.000e+00
   3.032e-02   0.000e+00   0.000e+00
   2.957e-02   0.000e+00   0.000e+00
   2.479e-02   0.000e+00   0.000e+00
   3.597e-02   0.000e+00   0.000e+00
   2.957e-02   0.000e+00   0.000e+00
   3.032e-02   0.000e+00   0.000e+00
   2.573e-02   0.000e+00   0.000e+00
   2.846e-02   0.000e+00   0.000e+00
   3.794e-02   0.000e+00   0.000e+00
   2.846e-02   0.000e+00   0.000e+00
   3.249e-02   0.000e+00   0.000e+00
   4.128e-02   0.000e+00   0.000e+00
   3.249e-02   0.000e+00   0.000e+00
   3.805e-02   0.000e+00   0.000e+00
   4.616e-02   0.000e+00   0.000e+00
   3.805e-02   0.000e+00   0.000e+00
   4.547e-02   0.000e+00   0.000e+00
   5.282e-02   0.000e+00   0.000e+00
   4.547e-02   0.000e+00   0.000e+00
   5.513e-02   0.000e+00   0.000e+00
   6.157e-02   0.000e+00   0.000e+00
   5.513e-02   0.000e+00   0.000e+00
   6.748e-02   0.000e+00   0.000e+00
   7.280e-02   0.000e+00   0.000e+00
   6.748e-02   0.000e+00   0.000e+00
   8.302e-02   0.000e+00   0.000e+00
   8.694e-02   0.000e+00   0.000e+00
   8.302e-02   0.000e+00   0.000e+00
   1.023e-01   0.000e+00   0.000e+00
   1.045e-01   0.000e+00   0.000e+00
   1.023e-01   0.000e+00   0.000e+00
   1.260e-01   0.000e+00   0.000e+00
   1.260e-01   0.000e+00   0.000e+00
   1.260e-01   0.000e+00   0.000e+00
   1.548e-01   0.000e+00   0.000e+00
   1.522e-01   0.000e+00   0.000e+00
   1.548e-01   0.000e+00   0.000e+00
   1.894e-01   0.000e+00   0.000e+00
   1.837e-01   0.000e+00   0.000e+00
   1.894e-01   0.000e+00   0.000e+00
   2.307e-01   0.000e+00   0.000e+00
   2.212e-01   0.000e+00   0.000e+00
   2.307e-01   0.000e+00   0.000e+00
   2.796e-01   0.000e+00   0.000e+00
   2.656e-01   0.000e+00   0.000e+00
   3.178e-01   0.000e+00   0.000e+00
   2.656e-01   0.000e+00   0.000e+00
   3.625e-01   0.000e+00   0.000e+00
   2.656e-01   0.000e+00   0.000e+00
   2.212e-01   0.000e+00   0.000e+00
   3.066e-01   0.000e+00   0.000e+00
   2.212e-01   0.000e+00   0.000e+00
   1.836e-01   0.000e+00   0.000e+00
   2.588e-01   0.000e+00   0.000e+00
   1.836e-01   0.000e+00   0.000e+00
   1.521e-01   0.000e+00   0.000e+00
   2.180e-01   0.000e+00   0.000e+00
   1.521e-01   0.000e+00   0.000e+00
   1.259e-01   0.000e+00   0.000e+00
   1.836e-01   0.000e+00   0.000e+00
   1.259e-01   0.000e+00   0.000e+00
   1.043e-01   0.000e+00   0.000e+00
   1.547e-01   0.000e+00   0.000e+00
   1.043e-01   0.000e+00   0.000e+00
   8.672e-02   0.000e+00   0.000e+00
   1.307e-01   0.000e+00   0.000e+00
   8.672e-02   0.000e+00   0.000e+00
   7.253e-02   0.000e+00   0.000e+00
   1.109e-01   0.000e+00   0.000e+00
   7.253e-02   0.000e+00   0.000e+00
   6.126e-02   0.000e+00   0.000e+00
   9.482e-02   0.000e+00   0.000e+00
   6.126e-02   0.000e+00   0.000e+00
   5.247e-02   0.000e+00   0.000e+00
   8.187e-02   0.000e+00   0.000e+00
   5.247e-02   0.000e+00   0.000e+00
   4.580e-02   0.000e+00   0.000e+00
   7.166e-02   0.000e+00   0.000e+00
   4.580e-02   0.000e+00   0.000e+00
   4.095e-02   0.000e+00   0.000e+00
   6.382e-02   0.000e+00   0.000e+00
   4.095e-02   0.000e+00   0.000e+00
   3.767e-02   0.000e+00   0.000e+00
   5.805e-02   0.000e+00   0.000e+00
   3.767e-02   0.000e+00   0.000e+00
   3.581e-02   0.000e+00   0.000e+00
   5.411e-02   0.000e+00   0.000e+00
   3.581e-02   0.000e+00   0.000e+00
   3.526e-02   0.000e+00   0.000e+00
   5.184e-02   0.000e+00   0.000e+00
   3.526e-02   0.000e+00   0.000e+00
   3.597e-02   0.000e+00   0.000e+00
   5.112e-02   0.000e+00   0.000e+00
   3.597e-02   0.000e+00   0.000e+00
   3.794e-02   0.000e+00   0.000e+00
   5.193e-02   0.000e+00   0.000e+00
   3.794e-02   0.000e+00   0.000e+00
   4.128e-02   0.000e+00   0.000e+00
   5.428e-02   0.000e+00   0.000e+00
   4.128e-02   0.000e+00   0.000e+00
   4.616e-02   0.000e+00   0.000e+00
   5.826e-02   0.000e+00   0.000e+00
   4.616e-02   0.000e+00   0.000e+00
   5.282e-02   0.000e+00   0.000e+00
   6.406e-02   0.000e+00   0.000e+00
   5.282e-02   0.000e+00   0.000e+00
   6.157e-02   0.000e+00   0.000e+00
   7.190e-02   0.000e+00   0.000e+00
   6.157e-02   0.000e+00   0.000e+00
   7.280e-02   0.000e+00   0.000e+00
   8.209e-02   0.000e+00   0.000e+00
   7.280e-02   0.000e+00   0.000e+00
   8.694e-02   0.000e+00   0.000e+00
   9.501e-02   0.000e+00   0.000e+00
   8.694e-02   0.000e+00   0.000e+00
   1.045e-01   0.000e+00   0.000e+00
   1.111e-01   0.000e+00   0.000e+00
   1.045e-01   0.000e+00   0.000e+00
   1.260e-01   0.000e+00   0.000e+00
   1.308e-01   0.000e+00   0.000e+00
   1.260e-01   0.000e+00   0.000e+00
   1.522e-01   0.000e+00   0.000e+00
   1.548e-01   0.000e+00   0.000e+00
   1.522e-01   0.000e+00   0.000e+00
   1.837e-01   0.000e+00   0.000e+00
   1.837e-01   0.000e+00   0.000e+00
   1.837e-01   0.000e+00   0.000e+00
   2.212e-01   0.000e+00   0.000e+00
   2.181e-01   0.000e+00   0.000e+00
   2.212e-01   0.000e+00   0.000e+00
   2.656e-01   0.000e+00   0.000e+00
   2.588e-01   0.000e+00   0.000e+00
   2.656e-01   0.000e+00   0.000e+00
   3.178e-01   0.000e+00   0.000e+00
   3.066e-01   0.000e+00   0.000e+00
   3.625e-01   0.000e+00   0.000e+00
   3.066e-01   0.000e+00   0.000e+00
   4.144e-01   0.000e+00   0.000e+00
   3.066e-01   0.000e+00   0.000e+00
   2.588e-01   0.000e+00   0.000e+00
   3.545e-01   0.000e+00   0.000e+00
   2.588e-01   0.000e+00   0.000e+00
   2.180e-01   0.000e+00   0.000e+00
   3.029e-01   0.000e+00   0.000e+00
   2.180e-01   0.000e+00   0.000e+00
   1.836e-01   0.000e+00   0.000e+00
   2.588e-01   0.000e+00   0.000e+00
   1.836e-01   0.000e+00   0.000e+00
   1.547e-01   0.000e+00   0.000e+00
   2.212e-01   0.000e+00   0.000e+00
   1.547e-01   0.000e+00   0.000e+00
   1.307e-01   0.000e+00   0.000e+00
   1.894e-01   0.000e+00   0.000e+00
   1.307e-01   0.000e+00   0.000e+00
   1.109e-01   0.000e+00   0.000e+00
   1.627e-01   0.000e+00   0.000e+00
   1.109e-01   0.000e+00   0.000e+00
   9.482e-02   0.000e+00   0.000e+00
   1.406e-01   0.000e+00   0.000e+00
   9.482e-02   0.000e+00   0.000e+00
   8.187e-02   0.000e+00   0.000e+00
   1.224e-01   0.000e+00   0.000e+00
   8.187e-02   0.000e+00   0.000e+00
   7.166e-02   0.000e+00   0.000e+00
   1.076e-01   0.000e+00   0.000e+00
   7.166e-02   0.000e+00   0.000e+00
   6.382e-02   0.000e+00   0.000e+00
   9.589e-02   0.000e+00   0.000e+00
   6.382e-02   0.000e+00   0.000e+00
   5.805e-02   0.000e+00   0.000e+00
   8.678e-02   0.000e+00   0.000e+00
   5.805e-02   0.000e+00   0.000e+00
   5.411e-02   0.000e+00   0.000e+00
   8.002e-02   0.000e+00   0.000e+00
   5.411e-02   0.000e+00   0.000e+00
   5.184e-02   0.000e+00   0.000e+00
   7.537e-02   0.000e+00   0.000e+00
   5.184e-02   0.000e+00   0.000e+00
   5.112e-02   0.000e+00   0.000e+00
   7.266e-02   0.000e+00   0.000e+00
   5.112e-02   0.000e+00   0.000e+00
   5.193e-02   0.000e+00   0.000e+00
   7.179e-02   0.000e+00   0.000e+00
   5.193e-02   0.000e+00   0.000e+00
   5.428e-02   0.000e+00   0.000e+00
   7.272e-02   0.000e+00   0.000e+00
   5.428e-02   0.000e+00   0.000e+00
   5.826e-02   0.000e+00   0.000e+00
   7.547e-02   0.000e+00   0.000e+00
   5.826e-02   0.000e+00   0.000e+00
   6.406e-02   0.000e+00   0.000e+00
   8.015e-02   0.000e+00   0.000e+00
   6.406e-02   0.000e+00   0.000e+00
   7.190e-02   0.000e+00   0.000e+00
   8.693e-02   0.000e+00   0.000e+00
   7.190e-02   0.000e+00   0.000e+00
   8.209e-02   0.000e+00   0.000e+00
   9.604e-02   0.000e+00   0.000e+00
   8.209e-02   0.000e+00   0.000e+00
   9.501e-02   0.000e+00   0.000e+00
   1.078e-01   0.000e+00   0.000e+00
   9.501e-02   0.000e+00   0.000e+00
   1.111e-01   0.000e+00   0.000e+00
   1.225e-01   0.000e+00   0.000e+00
   1.111e-01   0.000e+00   0.000e+00
   1.308e-01   0.000e+00   0.000e+00
   1.407e-01   0.000e+00   0.000e+00
   1.308e-01   0.000e+00   0.000e+00
   1.548e-01   0.000e+00   0.000e+00
   1.628e-01   0.000e+00   0.000e+00
   1.548e-01   0.000e+00   0.000e+00
   1.837e-01   0.000e+00   0.000e+00
   1.894e-01   0.000e+00   0.000e+00
   1.837e-01   0.000e+00   0.000e+00
   2.181e-01   0.000e+00   0.000e+00
   2.212e-01   0.000e+00   0.000e+00
   2.181e-01   0.000e+00   0.000e+00
   2.588e-01   0.000e+00   0.000e+00
   2.588e-01   0.000e+00   0.000e+00
   2.588e-01   0.000e+00   0.000e+00
   3.066e-01   0.000e+00   0.000e+00
   3.030e-01   0.000e+00   0.000e+00
   3.066e-01   0.000e+00   0.000e+00
   3.625e-01   0.000e+00   0.000e+00
   3.545e-01   0.000e+00   0.000e+00
   4.144e-01   0.000e+00   0.000e+00
   3.545e-01   0.000e+00   0.000e+00
   4.743e-01   0.000e+00   0.000e+00
   3.545e-01   0.000e+00   0.000e+00
   3.029e-01   0.000e+00   0.000e+00
   4.101e-01   0.000e+00   0.000e+00
   3.029e-01   0.000e+00   0.000e+00
   2.588e-01   0.000e+00   0.000e+00
   3.545e-01   0.000e+00   0.000e+00
   2.588e-01   0.000e+00   0.000e+00
   2.212e-01   0.000e+00   0.000e+00
   3.066e-01   0.000e+00   0.000e+00
   2.212e-01   0.000e+00   0.000e+00
   1.894e-01   0.000e+00   0.000e+00
   2.656e-01   0.000e+00   0.000e+00
   1.894e-01   0.000e+00   0.000e+00
   1.627e-01   0.000e+00   0.000e+00
   2.307e-01   0.000e+00   0.000e+00
   1.627e-01   0.000e+00   0.000e+00
   1.406e-01   0.000e+00   0.000e+00
   2.012e-01   0.000e+00   0.000e+00
   1.406e-01   0.000e+00   0.000e+00
   1.224e-01   0.000e+00   0.000e+00
   1.765e-01   0.000e+00   0.000e+00
   1.224e-01   0.000e+00   0.000e+00
   1.076e-01   0.000e+00   0.000e+00
   1.561e-01   0.000e+00   0.000e+00
   1.076e-01   0.000e+00   0.000e+00
   9.589e-02   0.000e+00   0.000e+00
   1.394e-01   0.000e+00   0.000e+00
   9.589e-02   0.000e+00   0.000e+00
   8.678e-02   0.000e+00   0.000e+00
   1.260e-01   0.000e+00   0.000e+00
   8.678e-02   0.000e+00   0.000e+00
   8.002e-02   0.000e+00   0.000e+00
   1.155e-01   0.000e+00   0.000e+00
   8.002e-02   0.000e+00   0.000e+00
   7.537e-02   0.000e+00   0.000e+00
   1.077e-01   0.000e+00   0.000e+00
   7.537e-02   0.000e+00   0.000e+00
   7.266e-02   0.000e+00   0.000e+00
   1.023e-01   0.000e+00   0.000e+00
   7.266e-02   0.000e+00   0.000e+00
   7.179e-02   0.000e+00   0.000e+00
   9.910e-02   0.000e+00   0.000e+00
   7.179e-02   0.000e+00   0.000e+00
   7.272e-02   0.000e+00   0.000e+00
   9.807e-02   0.000e+00   0.000e+00
   7.272e-02   0.000e+00   0.000e+00
   7.547e-02   0.000e+00   0.000e+00
   9.913e-02   0.000e+00   0.000e+00
   7.547e-02   0.000e+00   0.000e+00
   8.015e-02   0.000e+00   0.000e+00
   1.023e-01   0.000e+00   0.000e+00
   8.015e-02   0.000e+00   0.000e+00
   8.693e-02   0.000e+00   0.000e+00
   1.078e-01   0.000e+00   0.000e+00
   8.693e-02   0.000e+00   0.000e+00
   9.604e-02   0.000e+00   0.000e+00
   1.156e-01   0.000e+00   0.000e+00
   9.604e-02   0.000e+00   0.000e+00
   1.078e-01   0.000e+00   0.000e+00
   1.261e-01   0.000e+00   0.000e+00
   1.078e-01   0.000e+00   0.000e+00
   1.225e-01   0.000e+00   0.000e+00
   1.394e-01   0.000e+00   0.000e+00
   1.225e-01   0.000e+00   0.000e+00
   1.407e-01   0.000e+00   0.000e+00
   1.562e-01   0.000e+00   0.000e+00
   1.407e-01   0.000e+00   0.000e+00
   1.628e-01   0.000e+00   0.000e+00
   1.766e-01   0.000e+00   0.000e+00
   1.628e-01   0.000e+00   0.000e+00
   1.894e-01   0.000e+00   0.000e+00
   2.013e-01   0.000e+00   0.000e+00
   1.894e-01   0.000e+00   0.000e+00
   2.212e-01   0.000e+00   0.000e+00
   2.307e-01   0.000e+00   0.000e+00
   2.212e-01   0.000e+00   0.000e+00
   2.588e-01   0.000e+00   0.000e+00
   2.656e-01   0.000e+00   0.000e+00
   2.588e-01   0.000e+00   0.000e+00
   3.030e-01   0.000e+00   0.000e+00
   3.066e-01   0.000e+00   0.000e+00
   3.030e-01   0.000e+00   0.000e+00
   3.545e-01   0.000e+00   0.000e+00
   3.545e-01   0.000e+00   0.000e+00
   3.545e-01   0.000e+00   0.000e+00
   4.144e-01   0.000e+00   0.000e+00
   4.101e-01   0.000e+00   0.000e+00
   4.743e-01   0.000e+00   0.000e+00
   4.101e-01   0.000e+00   0.000e+00
   5.431e-01   0.000e+00   0.000e+00
   4.101e-01   0.000e+00   0.000e+00
   3.545e-01   0.000e+00   0.000e+00
   4.743e-01   0.000e+00   0.000e+00
   3.545e-01   0.000e+00   0.000e+00
   3.066e-01   0.000e+00   0.000e+00
   4.144e-01   0.000e+00   0.000e+00
   3.066e-01   0.000e+00   0.000e+00
   2.656e-01   0.000e+00   0.000e+00
   3.625e-01   0.000e+00   0.000e+00
   2.656e-01   0.000e+00   0.000e+00
   2.307e-01   0.000e+00   0.000e+00
   3.178e-01   0.000e+00   0.000e+00
   2.307e-01   0.000e+00   0.000e+00
   2.012e-01   0.000e+00   0.000e+00
   2.796e-01   0.000e+00   0.000e+00
   2.012e-01   0.000e+00   0.000e+00
   1.765e-01   0.000e+00   0.000e+00
   2.470e-01   0.000e+00   0.000e+00
   1.765e-01   0.000e+00   0.000e+00
   1.561e-01   0.000e+00   0.000e+00
   2.196e-01   0.000e+00   0.000e+00
   1.561e-01   0.000e+00   0.000e+00
   1.394e-01   0.000e+00   0.000e+00
   1.968e-01   0.000e+00   0.000e+00
   1.394e-01   0.000e+00   0.000e+00
   1.260e-01   0.000e+00   0.000e+00
   1.780e-01   0.000e+00   0.000e+00
   1.260e-01   0.000e+00   0.000e+00
   1.155e-01   0.000e+00   0.000e+00
   1.628e-01   0.000e+00   0.000e+00
   1.155e-01   0.000e+00   0.000e+00
   1.077e-01   0.000e+00   0.000e+00
   1.509e-01   0.000e+00   0.000e+00
   1.077e-01   0.000e+00   0.000e+00
   1.023e-01   0.000e+00   0.000e+00
   1.419e-01   0.000e+00   0.000e+00
   1.023e-01   0.000e+00   0.000e+00
   9.910e-02   0.000e+00   0.000e+00
   1.357e-01   0.000e+00   0.000e+00
   9.910e-02   0.000e+00   0.000e+00
   9.807e-02   0.000e+00   0.000e+00
   1.320e-01   0.000e+00   0.000e+00
   9.807e-02   0.000e+00   0.000e+00
   9.913e-02   0.000e+00   0.000e+00
   1.308e-01   0.000e+00   0.000e+00
   9.913e-02   0.000e+00   0.000e+00
   1.023e-01   0.000e+00   0.000e+00
   1.320e-01   0.000e+00   0.000e+00
   1.023e-01   0.000e+00   0.000e+00
   1.078e-01   0.000e+00   0.000e+00
   1.357e-01   0.000e+00   0.000e+00
   1.078e-01   0.000e+00   0.000e+00
   1.156e-01   0.000e+00   0.000e+00
   1.419e-01   0.000e+00   0.000e+00
   1.156e-01   0.000e+00   0.000e+00
   1.261e-01   0.000e+00   0.000e+00
   1.509e-01   0.000e+00   0.000e+00
   1.261e-01   0.000e+00   0.000e+00
   1.394e-01   0.000e+00   0.000e+00
   1.628e-01   0.000e+00   0.000e+00
   1.394e-01   0.000e+00   0.000e+00
   1.562e-01   0.000e+00   0.000e+00
   1.780e-01   0.000e+00   0.000e+00
   1.562e-01   0.000e+00   0.000e+00
   1.766e-01   0.000e+00   0.000e+00
   1.968e-01   0.000e+00   0.000e+00
   1.766e-01   0.000e+00   0.000e+00
   2.013e-01   0.000e+00   0.000e+00
   2.196e-01   0.000e+00   0.000e+00
   2.013e-01   0.000e+00   0.000e+00
   2.307e-01   0.000e+00   0.000e+00
   2.470e-01   0.000e+00   0.000e+00
   2.307e-01   0.000e+00   0.000e+00
   2.656e-01   0.000e+00   0.000e+00
   2.796e-01   0.000e+00   0.000e+00
   2.656e-01   0.000e+00   0.000e+00
   3.066e-01   0.000e+00   0.000e+00
   3.178e-01   0.000e+00   0.000e+00
   3.066e-01   0.000e+00   0.000e+00
   3.545e-01   0.000e+00   0.000e+00
   3.625e-01   0.000e+00   0.000e+00
   3.545e-01   0.000e+00   0.000e+00
   4.101e-01   0.000e+00   0.000e+00
   4.144e-01   0.000e+00   0.000e+00
   4.101e-01   0.000e+00   0.000e+00
   4.743e-01   0.000e+00   0.000e+00
   4.743e-01   0.000e+00   0.000e+00
   4.743e-01   0.000e+00   0.000e+00
   4.101e-01   0.000e+00   0.000e+00
   4.743e-01   0.000e+00   0.000e+00
   4.144e-01   0.000e+00   0.000e+00
   3.545e-01   0.000e+00   0.000e+00
   4.101e-01   0.000e+00   0.000e+00
   3.625e-01   0.000e+00   0.000e+00
   3.066e-01   0.000e+00   0.000e+00
   3.545e-01   0.000e+00   0.000e+00
   3.178e-01   0.000e+00   0.000e+00
   2.656e-01   0.000e+00   0.000e+00
   3.066e-01   0.000e+00   0.000e+00
   2.796e-01   0.000e+00   0.000e+00
   2.307e-01   0.000e+00   0.000e+00
   2.656e-01   0.000e+00   0.000e+00
   2.470e-01   0.000e+00   0.000e+00
   2.013e-01   0.000e+00   0.000e+00
   2.307e-01   0.000e+00   0.000e+00
   2.196e-01   0.000e+00   0.000e+00
   1.766e-01   0.000e+00   0.000e+00
   2.013e-01   0.000e+00   0.000e+00
   1.968e-01   0.000e+00   0.000e+00
   1.561e-01   0.000e+00   0.000e+00
   1.766e-01   0.000e+00   0.000e+00
   1.780e-01   0.000e+00   0.000e+00
   1.394e-01   0.000e+00   0.000e+00
   1.561e-01   0.000e+00   0.000e+00
   1.628e-01   0.000e+00   0.000e+00
   1.260e-01   0.000e+00   0.000e+00
   1.394e-01   0.000e+00   0.000e+00
   1.509e-01   0.000e+00   0.000e+00
   1.156e-01   0.000e+00   0.000e+00
   1.260e-01   0.000e+00   0.000e+00
   1.419e-01   0.000e+00   0.000e+00
   1.077e-01   0.000e+00   0.000e+00
   1.156e-01   0.000e+00   0.000e+00
   1.357e-01   0.000e+00   0.000e+00
   1.023e-01   0.000e+00   0.000e+00
   1.077e-01   0.000e+00   0.000e+00
   1.320e-01   0.000e+00   0.000e+00
   9.911e-02   0.000e+00   0.000e+00
   1.023e-01   0.000e+00   0.000e+00
   1.308e-01   0.000e+00   0.000e+00
   9.805e-02   0.000e+00   0.000e+00
   9.911e-02   0.000e+00   0.000e+00
   1.320e-01   0.000e+00   0.000e+00
   9.910e-02   0.000e+00   0.000e+00
   9.805e-02   0.000e+00   0.000e+00
   1.357e-01   0.000e+00   0.000e+00
   1.023e-01   0.000e+00   0.000e+00
   9.910e-02   0.000e+00   0.000e+00
   1.419e-01   0.000e+00   0.000e+00
   1.077e-01   0.000e+00   0.000e+00
   1.023e-01   0.000e+00   0.000e+00
   1.509e-01   0.000e+00   0.000e+00
   1.155e-01   0.000e+00   0.000e+00
   1.077e-01   0.000e+00   0.000e+00
   1.628e-01   0.000e+00   0.000e+00
   1.260e-01   0.000e+00   0.000e+00
   1.155e-01   0.000e+00   0.000e+00
   1.780e-01   0.000e+00   0.000e+00
   1.394e-01   0.000e+00   0.000e+00
   1.260e-01   0.000e+00   0.000e+00
   1.968e-01   0.000e+00   0.000e+00
   1.561e-01   0.000e+00   0.000e+00
   1.394e-01   0.000e+00   0.000e+00
   2.196e-01   0.000e+00   0.000e+00
   1.765e-01   0.000e+00   0.000e+00
   1.561e-01   0.000e+00   0.000e+00
   2.470e-01   0.000e+00   0.000e+00
   2.012e-01   0.000e+00   0.000e+00
   1.765e-01   0.000e+00   0.000e+00
   2.796e-01   0.000e+00   0.000e+00
   2.307e-01   0.000e+00   0.000e+00
   2.012e-01   0.000e+00   0.000e+00
   3.178e-01   0.000e+00   0.000e+00
   2.656e-01   0.000e+00   0.000e+00
   2.307e-01   0.000e+00   0.000e+00
   3.625e-01   0.000e+00   0.000e+00
   3.066e-01   0.000e+00   0.000e+00
   2.656e-01   0.000e+00   0.000e+00
   4.144e-01   0.000e+00   0.000e+00
   3.545e-01   0.000e+00   0.000e+00
   3.066e-01   0.000e+00   0.000e+00
   4.743e-01   0.000e+00   0.000e+00
   4.101e-01   0.000e+00   0.000e+00
   3.545e-01   0.000e+00   0.000e+00
   5.431e-01   0.000e+00   0.000e+00
   4.743e-01   0.000e+00   0.000e+00
   4.101e-01   0.000e+00   0.000e+00
   4.101e-01   0.000e+00   0.000e+00
   3.545e-01   0.000e+00   0.000e+00
   4.144e-01   0.000e+00   0.000e+00
   3.545e-01   0.000e+00   0.000e+00
   3.030e-01   0.000e+00   0.000e+00
   3.545e-01   0.000e+00   0.000e+00
   3.066e-01   0.000e+00   0.000e+00
   2.588e-01   0.000e+00   0.000e+00
   3.030e-01   0.000e+00   0.000e+00
   2.656e-01   0.000e+00   0.000e+00
   2.212e-01   0.000e+00   0.000e+00
   2.588e-01   0.000e+00   0.000e+00
   2.307e-01   0.000e+00   0.000e+00
   1.894e-01   0.000e+00   0.000e+00
   2.212e-01   0.000e+00   0.000e+00
   2.013e-01   0.000e+00   0.000e+00
   1.628e-01   0.000e+00   0.000e+00
   1.894e-01   0.000e+00   0.000e+00
   1.766e-01   0.000e+00   0.000e+00
   1.407e-01   0.000e+00   0.000e+00
   1.628e-01   0.000e+00   0.000e+00
   1.561e-01   0.000e+00   0.000e+00
   1.225e-01   0.000e+00   0.000e+00
   1.407e-01   0.000e+00   0.000e+00
   1.394e-01   0.000e+00   0.000e+00
   1.077e-01   0.000e+00   0.000e+00
   1.225e-01   0.000e+00   0.000e+00
   1.260e-01   0.000e+00   0.000e+00
   9.598e-02   0.000e+00   0.000e+00
   1.077e-01   0.000e+00   0.000e+00
   1.156e-01   0.000e+00   0.000e+00
   8.686e-02   0.000e+00   0.000e+00
   9.598e-02   0.000e+00   0.000e+00
   1.077e-01   0.000e+00   0.000e+00
   8.009e-02   0.000e+00   0.000e+00
   8.686e-02   0.000e+00   0.000e+00
   1.023e-01   0.000e+00   0.000e+00
   7.541e-02   0.000e+00   0.000e+00
   8.009e-02   0.000e+00   0.000e+00
   9.911e-02   0.000e+00   0.000e+00
   7.267e-02   0.000e+00   0.000e+00
   7.541e-02   0.000e+00   0.000e+00
   9.805e-02   0.000e+00   0.000e+00
   7.176e-02   0.000e+00   0.000e+00
   7.267e-02   0.000e+00   0.000e+00
   9.910e-02   0.000e+00   0.000e+00
   7.265e-02   0.000e+00   0.000e+00
   7.176e-02   0.000e+00   0.000e+00
   1.023e-01   0.000e+00   0.000e+00
   7.538e-02   0.000e+00   0.000e+00
   7.265e-02   0.000e+00   0.000e+00
   1.077e-01   0.000e+00   0.000e+00
   8.004e-02   0.000e+00   0.000e+00
   7.538e-02   0.000e+00   0.000e+00
   1.155e-01   0.000e+00   0.000e+00
   8.681e-02   0.000e+00   0.000e+00
   8.004e-02   0.000e+00   0.000e+00
   1.260e-01   0.000e+00   0.000e+00
   9.591e-02   0.000e+00   0.000e+00
   8.681e-02   0.000e+00   0.000e+00
   1.394e-01   0.000e+00   0.000e+00
   1.077e-01   0.000e+00   0.000e+00
   9.591e-02   0.000e+00   0.000e+00
   1.561e-01   0.000e+00   0.000e+00
   1.224e-01   0.000e+00   0.000e+00
   1.077e-01   0.000e+00   0.000e+00
   1.765e-01   0.000e+00   0.000e+00
   1.406e-01   0.000e+00   0.000e+00
   1.224e-01   0.000e+00   0.000e+00
   2.012e-01   0.000e+00   0.000e+00
   1.627e-01   0.000e+00   0.000e+00
   1.406e-01   0.000e+00   0.000e+00
   2.307e-01   0.000e+00   0.000e+00
   1.894e-01   0.000e+00   0.000e+00
   1.627e-01   0.000e+00   0.000e+00
   2.656e-01   0.000e+00   0.000e+00
   2.211e-01   0.000e+00   0.000e+00
   1.894e-01   0.000e+00   0.000e+00
   3.066e-01   0.000e+00   0.000e+00
   2.587e-01   0.000e+00   0.000e+00
   2.211e-01   0.000e+00   0.000e+00
   3.545e-01   0.000e+00   0.000e+00
   3.029e-01   0.000e+00   0.000e+00
   2.587e-01   0.000e+00   0.000e+00
   4.101e-01   0.000e+00   0.000e+00
   3.545e-01   0.000e+00   0.000e+00
   3.029e-01   0.000e+00   0.000e+00
   4.743e-01   0.000e+00   0.000e+00
   4.144e-01   0.000e+00   0.000e+00
   3.545e-01   0.000e+00   0.000e+00
   3.545e-01   0.000e+00   0.000e+00
   3.066e-01   0.000e+00   0.000e+00
   3.625e-01   0.000e+00   0.000e+00
   3.030e-01   0.000e+00   0.000e+00
   2.588e-01   0.000e+00   0.000e+00
   3.066e-01   0.000e+00   0.000e+00
   2.588e-01   0.000e+00   0.000e+00
   2.181e-01   0.000e+00   0.000e+00
   2.588e-01   0.000e+00   0.000e+00
   2.212e-01   0.000e+00   0.000e+00
   1.837e-01   0.000e+00   0.000e+00
   2.181e-01   0.000e+00   0.000e+00
   1.894e-01   0.000e+00   0.000e+00
   1.548e-01   0.000e+00   0.000e+00
   1.837e-01   0.000e+00   0.000e+00
   1.628e-01   0.000e+00   0.000e+00
   1.308e-01   0.000e+00   0.000e+00
   1.548e-01   0.000e+00   0.000e+00
   1.407e-01   0.000e+00   0.000e+00
   1.111e-01   0.000e+00   0.000e+00
   1.308e-01   0.000e+00   0.000e+00
   1.225e-01   0.000e+00   0.000e+00
   9.496e-02   0.000e+00   0.000e+00
   1.111e-01   0.000e+00   0.000e+00
   1.077e-01   0.000e+00   0.000e+00
   8.202e-02   0.000e+00   0.000e+00
   9.496e-02   0.000e+00   0.000e+00
   9.598e-02   0.000e+00   0.000e+00
   7.181e-02   0.000e+00   0.000e+00
   8.202e-02   0.000e+00   0.000e+00
   8.686e-02   0.000e+00   0.000e+00
   6.395e-02   0.000e+00   0.000e+00
   7.181e-02   0.000e+00   0.000e+00
   8.009e-02   0.000e+00   0.000e+00
   5.815e-02   0.000e+00   0.000e+00
   6.395e-02   0.000e+00   0.000e+00
   7.541e-02   0.000e+00   0.000e+00
   5.418e-02   0.000e+00   0.000e+00
   5.815e-02   0.000e+00   0.000e+00
   7.267e-02   0.000e+00   0.000e+00
   5.185e-02   0.000e+00   0.000e+00
   5.418e-02   0.000e+00   0.000e+00
   7.176e-02   0.000e+00   0.000e+00
   5.108e-02   0.000e+00   0.000e+00
   5.185e-02   0.000e+00   0.000e+00
   7.265e-02   0.000e+00   0.000e+00
   5.183e-02   0.000e+00   0.000e+00
   5.108e-02   0.000e+00   0.000e+00
   7.538e-02   0.000e+00   0.000e+00
   5.413e-02   0.000e+00   0.000e+00
   5.183e-02   0.000e+00   0.000e+00
   8.004e-02   0.000e+00   0.000e+00
   5.808e-02   0.000e+00   0.000e+00
   5.413e-02   0.000e+00   0.000e+00
   8.681e-02   0.000e+00   0.000e+00
   6.386e-02   0.000e+00   0.000e+00
   5.808e-02   0.000e+00   0.000e+00
   9.591e-02   0.000e+00   0.000e+00
   7.170e-02   0.000e+00   0.000e+00
   6.386e-02   0.000e+00   0.000e+00
   1.077e-01   0.000e+00   0.000e+00
   8.190e-02   0.000e+00   0.000e+00
   7.170e-02   0.000e+00   0.000e+00
   1.224e-01   0.000e+00   0.000e+00
   9.484e-02   0.000e+00   0.000e+00
   8.190e-02   0.000e+00   0.000e+00
   1.406e-01   0.000e+00   0.000e+00
   1.109e-01   0.000e+00   0.000e+00
   9.484e-02   0.000e+00   0.000e+00
   1.627e-01   0.000e+00   0.000e+00
   1.307e-01   0.000e+00   0.000e+00
   1.109e-01   0.000e+00   0.000e+00
   1.894e-01   0.000e+00   0.000e+00
   1.547e-01   0.000e+00   0.000e+00
   1.307e-01   0.000e+00   0.000e+00
   2.211e-01   0.000e+00   0.000e+00
   1.836e-01   0.000e+00   0.000e+00
   1.547e-01   0.000e+00   0.000e+00
   2.587e-01   0.000e+00   0.000e+00
   2.180e-01   0.000e+00   0.000e+00
   1.836e-01   0.000e+00   0.000e+00
   3.029e-01   0.000e+00   0.000e+00
   2.587e-01   0.000e+00   0.000e+00
   2.180e-01   0.000e+00   0.000e+00
   3.545e-01   0.000e+00   0.000e+00
   3.066e-01   0.000e+00   0.000e+00
   2.587e-01   0.000e+00   0.000e+00
   4.144e-01   0.000e+00   0.000e+00
   3.625e-01   0.000e+00   0.000e+00
   3.066e-01   0.000e+00   0.000e+00
   3.066e-01   0.000e+00   0.000e+00
   2.656e-01   0.000e+00   0.000e+00
   3.178e-01   0.000e+00   0.000e+00
   2.588e-01   0.000e+00   0.000e+00
   2.212e-01   0.000e+00   0.000e+00
   2.656e-01   0.000e+00   0.000e+00
   2.181e-01   0.000e+00   0.000e+00
   1.837e-01   0.000e+00   0.000e+00
   2.212e-01   0.000e+00   0.000e+00
   1.837e-01   0.000e+00   0.000e+00
   1.522e-01   0.000e+00   0.000e+00
   1.837e-01   0.000e+00   0.000e+00
   1.548e-01   0.000e+00   0.000e+00
   1.261e-01   0.000e+00   0.000e+00
   1.522e-01   0.000e+00   0.000e+00
   1.308e-01   0.000e+00   0.000e+00
   1.045e-01   0.000e+00   0.000e+00
   1.261e-01   0.000e+00   0.000e+00
   1.111e-01   0.000e+00   0.000e+00
   8.691e-02   0.000e+00   0.000e+00
   1.045e-01   0.000e+00   0.000e+00
   9.496e-02   0.000e+00   0.000e+00
   7.274e-02   0.000e+00   0.000e+00
   8.691e-02   0.000e+00   0.000e+00
   8.202e-02   0.000e+00   0.000e+00
   6.148e-02   0.000e+00   0.000e+00
   7.274e-02   0.000e+00   0.000e+00
   7.181e-02   0.000e+00   0.000e+00
   5.269e-02   0.000e+00   0.000e+00
   6.148e-02   0.000e+00   0.000e+00
   6.395e-02   0.000e+00   0.000e+00
   4.600e-02   0.000e+00   0.000e+00
   5.269e-02   0.000e+00   0.000e+00
   5.815e-02   0.000e+00   0.000e+00
   4.111e-02   0.000e+00   0.000e+00
   4.600e-02   0.000e+00   0.000e+00
   5.418e-02   0.000e+00   0.000e+00
   3.778e-02   0.000e+00   0.000e+00
   4.111e-02   0.000e+00   0.000e+00
   5.185e-02   0.000e+00   0.000e+00
   3.585e-02   0.000e+00   0.000e+00
   3.778e-02   0.000e+00   0.000e+00
   5.108e-02   0.000e+00   0.000e+00
   3.520e-02   0.000e+00   0.000e+00
   3.585e-02   0.000e+00   0.000e+00
   5.183e-02   0.000e+00   0.000e+00
   3.581e-02   0.000e+00   0.000e+00
   3.520e-02   0.000e+00   0.000e+00
   5.413e-02   0.000e+00   0.000e+00
   3.771e-02   0.000e+00   0.000e+00
   3.581e-02   0.000e+00   0.000e+00
   5.808e-02   0.000e+00   0.000e+00
   4.101e-02   0.000e+00   0.000e+00
   3.771e-02   0.000e+00   0.000e+00
   6.386e-02   0.000e+00   0.000e+00
   4.587e-02   0.000e+00   0.000e+00
   4.101e-02   0.000e+00   0.000e+00
   7.170e-02   0.000e+00   0.000e+00
   5.254e-02   0.000e+00   0.000e+00
   4.587e-02   0.000e+00   0.000e+00
   8.190e-02   0.000e+00   0.000e+00
   6.131e-02   0.000e+00   0.000e+00
   5.254e-02   0.000e+00   0.000e+00
   9.484e-02   0.000e+00   0.000e+00
   7.256e-02   0.000e+00   0.000e+00
   6.131e-02   0.000e+00   0.000e+00
   1.109e-01   0.000e+00   0.000e+00
   8.673e-02   0.000e+00   0.000e+00
   7.256e-02   0.000e+00   0.000e+00
   1.307e-01   0.000e+00   0.000e+00
   1.043e-01   0.000e+00   0.000e+00
   8.673e-02   0.000e+00   0.000e+00
   1.547e-01   0.000e+00   0.000e+00
   1.259e-01   0.000e+00   0.000e+00
   1.043e-01   0.000e+00   0.000e+00
   1.836e-01   0.000e+00   0.000e+00
   1.521e-01   0.000e+00   0.000e+00
   1.259e-01   0.000e+00   0.000e+00
   2.180e-01   0.000e+00   0.000e+00
   1.836e-01   0.000e+00   0.000e+00
   1.521e-01   0.000e+00   0.000e+00
   2.587e-01   0.000e+00   0.000e+00
   2.211e-01   0.000e+00   0.000e+00
   1.836e-01   0.000e+00   0.000e+00
   3.066e-01   0.000e+00   0.000e+00
   2.656e-01   0.000e+00   0.000e+00
   2.211e-01   0.000e+00   0.000e+00
   3.625e-01   0.000e+00   0.000e+00
   3.178e-01   0.000e+00   0.000e+00
   2.656e-01   0.000e+00   0.000e+00
   2.656e-01   0.000e+00   0.000e+00
   2.307e-01   0.000e+00   0.000e+00
   2.796e-01   0.000e+00   0.000e+00
   2.212e-01   0.000e+00   0.000e+00
   1.895e-01   0.000e+00   0.000e+00
   2.307e-01   0.000e+00   0.000e+00
   1.837e-01   0.000e+00   0.000e+00
   1.548e-01   0.000e+00   0.000e+00
   1.895e-01   0.000e+00   0.000e+00
   1.522e-01   0.000e+00   0.000e+00
   1.261e-01   0.000e+00   0.000e+00
   1.548e-01   0.000e+00   0.000e+00
   1.261e-01   0.000e+00   0.000e+00
   1.024e-01   0.000e+00   0.000e+00
   1.261e-01   0.000e+00   0.000e+00
   1.045e-01   0.000e+00   0.000e+00
   8.303e-02   0.000e+00   0.000e+00
   1.024e-01   0.000e+00   0.000e+00
   8.691e-02   0.000e+00   0.000e+00
   6.746e-02   0.000e+00   0.000e+00
   8.303e-02   0.000e+00   0.000e+00
   7.274e-02   0.000e+00   0.000e+00
   5.507e-02   0.000e+00   0.000e+00
   6.746e-02   0.000e+00   0.000e+00
   6.148e-02   0.000e+00   0.000e+00
   4.535e-02   0.000e+00   0.000e+00
   5.507e-02   0.000e+00   0.000e+00
   5.269e-02   0.000e+00   0.000e+00
   3.787e-02   0.000e+00   0.000e+00
   4.535e-02   0.000e+00   0.000e+00
   4.600e-02   0.000e+00   0.000e+00
   3.226e-02   0.000e+00   0.000e+00
   3.787e-02   0.000e+00   0.000e+00
   4.111e-02   0.000e+00   0.000e+00
   2.821e-02   0.000e+00   0.000e+00
   3.226e-02   0.000e+00   0.000e+00
   3.778e-02   0.000e+00   0.000e+00
   2.548e-02   0.000e+00   0.000e+00
   2.821e-02   0.000e+00   0.000e+00
   3.585e-02   0.000e+00   0.000e+00
   2.390e-02   0.000e+00   0.000e+00
   2.548e-02   0.000e+00   0.000e+00
   3.520e-02   0.000e+00   0.000e+00
   2.338e-02   0.000e+00   0.000e+00
   2.390e-02   0.000e+00   0.000e+00
   3.581e-02   0.000e+00   0.000e+00
   2.386e-02   0.000e+00   0.000e+00
   2.338e-02   0.000e+00   0.000e+00
   3.771e-02   0.000e+00   0.000e+00
   2.539e-02   0.000e+00   0.000e+00
   2.386e-02   0.000e+00   0.000e+00
   4.101e-02   0.000e+00   0.000e+00
   2.808e-02   0.000e+00   0.000e+00
   2.539e-02   0.000e+00   0.000e+00
   4.587e-02   0.000e+00   0.000e+00
   3.209e-02   0.000e+00   0.000e+00
   2.808e-02   0.000e+00   0.000e+00
   5.254e-02   0.000e+00   0.000e+00
   3.767e-02   0.000e+00   0.000e+00
   3.209e-02   0.000e+00   0.000e+00
   6.131e-02   0.000e+00   0.000e+00
   4.513e-02   0.000e+00   0.000e+00
   3.767e-02   0.000e+00   0.000e+00
   7.256e-02   0.000e+00   0.000e+00
   5.483e-02   0.000e+00   0.000e+00
   4.513e-02   0.000e+00   0.000e+00
   8.673e-02   0.000e+00   0.000e+00
   6.722e-02   0.000e+00   0.000e+00
   5.483e-02   0.000e+00   0.000e+00
   1.043e-01   0.000e+00   0.000e+00
   8.281e-02   0.000e+00   0.000e+00
   6.722e-02   0.000e+00   0.000e+00
   1.259e-01   0.000e+00   0.000e+00
   1.022e-01   0.000e+00   0.000e+00
   8.281e-02   0.000e+00   0.000e+00
   1.521e-01   0.000e+00   0.000e+00
   1.259e-01   0.000e+00   0.000e+00
   1.022e-01   0.000e+00   0.000e+00
   1.836e-01   0.000e+00   0.000e+00
   1.547e-01   0.000e+00   0.000e+00
   1.259e-01   0.000e+00   0.000e+00
   2.211e-01   0.000e+00   0.000e+00
   1.894e-01   0.000e+00   0.000e+00
   1.547e-01   0.000e+00   0.000e+00
   2.656e-01   0.000e+00   0.000e+00
   2.307e-01   0.000e+00   0.000e+00
   1.894e-01   0.000e+00   0.000e+00
   3.178e-01   0.000e+00   0.000e+00
   2.796e-01   0.000e+00   0.000e+00
   2.307e-01   0.000e+00   0.000e+00
   2.307e-01   0.000e+00   0.000e+00
   2.013e-01   0.000e+00   0.000e+00
   2.470e-01   0.000e+00   0.000e+00
   1.895e-01   0.000e+00   0.000e+00
   1.628e-01   0.000e+00   0.000e+00
   2.013e-01   0.000e+00   0.000e+00
   1.548e-01   0.000e+00   0.000e+00
   1.309e-01   0.000e+00   0.000e+00
   1.628e-01   0.000e+00   0.000e+00
   1.261e-01   0.000e+00   0.000e+00
   1.045e-01   0.000e+00   0.000e+00
   1.309e-01   0.000e+00   0.000e+00
   1.024e-01   0.000e+00   0.000e+00
   8.305e-02   0.000e+00   0.000e+00
   1.045e-01   0.000e+00   0.000e+00
   8.303e-02   0.000e+00   0.000e+00
   6.576e-02   0.000e+00   0.000e+00
   8.305e-02   0.000e+00   0.000e+00
   6.746e-02   0.000e+00   0.000e+00
   5.202e-02   0.000e+00   0.000e+00
   6.576e-02   0.000e+00   0.000e+00
   5.507e-02   0.000e+00   0.000e+00
   4.125e-02   0.000e+00   0.000e+00
   5.202e-02   0.000e+00   0.000e+00
   4.535e-02   0.000e+00   0.000e+00
   3.295e-02   0.000e+00   0.000e+00
   4.125e-02   0.000e+00   0.000e+00
   3.787e-02   0.000e+00   0.000e+00
   2.668e-02   0.000e+00   0.000e+00
   3.295e-02   0.000e+00   0.000e+00
   3.226e-02   0.000e+00   0.000e+00
   2.205e-02   0.000e+00   0.000e+00
   2.668e-02   0.000e+00   0.000e+00
   2.821e-02   0.000e+00   0.000e+00
   1.877e-02   0.000e+00   0.000e+00
   2.205e-02   0.000e+00   0.000e+00
   2.548e-02   0.000e+00   0.000e+00
   1.660e-02   0.000e+00   0.000e+00
   1.877e-02   0.000e+00   0.000e+00
   2.390e-02   0.000e+00   0.000e+00
   1.535e-02   0.000e+00   0.000e+00
   1.660e-02   0.000e+00   0.000e+00
   2.338e-02   0.000e+00   0.000e+00
   1.493e-02   0.000e+00   0.000e+00
   1.535e-02   0.000e+00   0.000e+00
   2.386e-02   0.000e+00   0.000e+00
   1.530e-02   0.000e+00   0.000e+00
   1.493e-02   0.000e+00   0.000e+00
   2.539e-02   0.000e+00   0.000e+00
   1.649e-02   0.000e+00   0.000e+00
   1.530e-02   0.000e+00   0.000e+00
   2.808e-02   0.000e+00   0.000e+00
   1.861e-02   0.000e+00   0.000e+00
   1.649e-02   0.000e+00   0.000e+00
   3.209e-02   0.000e+00   0.000e+00
   2.184e-02   0.000e+00   0.000e+00
   1.861e-02   0.000e+00   0.000e+00
   3.767e-02   0.000e+00   0.000e+00
   2.642e-02   0.000e+00   0.000e+00
   2.184e-02   0.000e+00   0.000e+00
   4.513e-02   0.000e+00   0.000e+00
   3.266e-02   0.000e+00   0.000e+00
   2.642e-02   0.000e+00   0.000e+00
   5.483e-02   0.000e+00   0.000e+00
   4.094e-02   0.000e+00   0.000e+00
   3.266e-02   0.000e+00   0.000e+00
   6.722e-02   0.000e+00   0.000e+00
   5.171e-02   0.000e+00   0.000e+00
   4.094e-02   0.000e+00   0.000e+00
   8.281e-02   0.000e+00   0.000e+00
   6.547e-02   0.000e+00   0.000e+00
   5.171e-02   0.000e+00   0.000e+00
   1.022e-01   0.000e+00   0.000e+00
   8.279e-02   0.000e+00   0.000e+00
   6.547e-02   0.000e+00   0.000e+00
   1.259e-01   0.000e+00   0.000e+00
   1.043e-01   0.000e+00   0.000e+00
   8.279e-02   0.000e+00   0.000e+00
   1.547e-01   0.000e+00   0.000e+00
   1.307e-01   0.000e+00   0.000e+00
   1.043e-01   0.000e+00   0.000e+00
   1.894e-01   0.000e+00   0.000e+00
   1.627e-01   0.000e+00   0.000e+00
   1.307e-01   0.000e+00   0.000e+00
   2.307e-01   0.000e+00   0.000e+00
   2.012e-01   0.000e+00   0.000e+00
   1.627e-01   0.000e+00   0.000e+00
   2.796e-01   0.000e+00   0.000e+00
   2.470e-01   0.000e+00   0.000e+00
   2.012e-01   0.000e+00   0.000e+00
   2.013e-01   0.000e+00   0.000e+00
   1.766e-01   0.000e+00   0.000e+00
   2.196e-01   0.000e+00   0.000e+00
   1.628e-01   0.000e+00   0.000e+00
   1.407e-01   0.000e+00   0.000e+00
   1.766e-01   0.000e+00   0.000e+00
   1.309e-01   0.000e+00   0.000e+00
   1.111e-01   0.000e+00   0.000e+00
   1.407e-01   0.000e+00   0.000e+00
   1.045e-01   0.000e+00   0.000e+00
   8.696e-02   0.000e+00   0.000e+00
   1.111e-01   0.000e+00   0.000e+00
   8.305e-02   0.000e+00   0.000e+00
   6.751e-02   0.000e+00   0.000e+00
   8.696e-02   0.000e+00   0.000e+00
   6.576e-02   0.000e+00   0.000e+00
   5.205e-02   0.000e+00   0.000e+00
   6.751e-02   0.000e+00   0.000e+00
   5.202e-02   0.000e+00   0.000e+00
   3.997e-02   0.000e+00   0.000e+00
   5.205e-02   0.000e+00   0.000e+00
   4.125e-02   0.000e+00   0.000e+00
   3.067e-02   0.000e+00   0.000e+00
   3.997e-02   0.000e+00   0.000e+00
   3.295e-02   0.000e+00   0.000e+00
   2.366e-02   0.000e+00   0.000e+00
   3.067e-02   0.000e+00   0.000e+00
   2.668e-02   0.000e+00   0.000e+00
   1.849e-02   0.000e+00   0.000e+00
   2.366e-02   0.000e+00   0.000e+00
   2.205e-02   0.000e+00   0.000e+00
   1.476e-02   0.000e+00   0.000e+00
   1.849e-02   0.000e+00   0.000e+00
   1.877e-02   0.000e+00   0.000e+00
   1.218e-02   0.000e+00   0.000e+00
   1.476e-02   0.000e+00   0.000e+00
   1.660e-02   0.000e+00   0.000e+00
   1.052e-02   0.000e+00   0.000e+00
   1.218e-02   0.000e+00   0.000e+00
   1.535e-02   0.000e+00   0.000e+00
   9.578e-03   0.000e+00   0.000e+00
   1.052e-02   0.000e+00   0.000e+00
   1.493e-02   0.000e+00   0.000e+00
   9.256e-03   0.000e+00   0.000e+00
   9.578e-03   0.000e+00   0.000e+00
   1.530e-02   0.000e+00   0.000e+00
   9.512e-03   0.000e+00   0.000e+00
   9.256e-03   0.000e+00   0.000e+00
   1.649e-02   0.000e+00   0.000e+00
   1.038e-02   0.000e+00   0.000e+00
   9.512e-03   0.000e+00   0.000e+00
   1.861e-02   0.000e+00   0.000e+00
   1.198e-02   0.000e+00   0.000e+00
   1.038e-02   0.000e+00   0.000e+00
   2.184e-02   0.000e+00   0.000e+00
   1.450e-02   0.000e+00   0.000e+00
   1.198e-02   0.000e+00   0.000e+00
   2.642e-02   0.000e+00   0.000e+00
   1.817e-02   0.000e+00   0.000e+00
   1.450e-02   0.000e+00   0.000e+00
   3.266e-02   0.000e+00   0.000e+00
   2.330e-02   0.000e+00   0.000e+00
   1.817e-02   0.000e+00   0.000e+00
   4.094e-02   0.000e+00   0.000e+00
   3.027e-02   0.000e+00   0.000e+00
   2.330e-02   0.000e+00   0.000e+00
   5.171e-02   0.000e+00   0.000e+00
   3.956e-02   0.000e+00   0.000e+00
   3.027e-02   0.000e+00   0.000e+00
   6.547e-02   0.000e+00   0.000e+00
   5.167e-02   0.000e+00   0.000e+00
   3.956e-02   0.000e+00   0.000e+00
   8.279e-02   0.000e+00   0.000e+00
   6.717e-02   0.000e+00   0.000e+00
   5.167e-02   0.000e+00   0.000e+00
   1.043e-01   0.000e+00   0.000e+00
   8.668e-02   0.000e+00   0.000e+00
   6.717e-02   0.000e+00   0.000e+00
   1.307e-01   0.000e+00   0.000e+00
   1.109e-01   0.000e+00   0.000e+00
   8.668e-02   0.000e+00   0.000e+00
   1.627e-01   0.000e+00   0.000e+00
   1.406e-01   0.000e+00   0.000e+00
   1.109e-01   0.000e+00   0.000e+00
   2.012e-01   0.000e+00   0.000e+00
   1.765e-01   0.000e+00   0.000e+00
   1.406e-01   0.000e+00   0.000e+00
   2.470e-01   0.000e+00   0.000e+00
   2.196e-01   0.000e+00   0.000e+00
   1.765e-01   0.000e+00   0.000e+00
   1.766e-01   0.000e+00   0.000e+00
   1.562e-01   0.000e+00   0.000e+00
   1.968e-01   0.000e+00   0.000e+00
   1.407e-01   0.000e+00   0.000e+00
   1.225e-01   0.000e+00   0.000e+00
   1.562e-01   0.000e+00   0.000e+00
   1.111e-01   0.000e+00   0.000e+00
   9.503e-02   0.000e+00   0.000e+00
   1.225e-01   0.000e+00   0.000e+00
   8.696e-02   0.000e+00   0.000e+00
   7.283e-02   0.000e+00   0.000e+00
   9.503e-02   0.000e+00   0.000e+00
   6.751e-02   0.000e+00   0.000e+00
   5.516e-02   0.000e+00   0.000e+00
   7.283e-02   0.000e+00   0.000e+00
   5.205e-02   0.000e+00   0.000e+00
   4.134e-02   0.000e+00   0.000e+00
   5.516e-02   0.000e+00   0.000e+00
   3.997e-02   0.000e+00   0.000e+00
   3.073e-02   0.000e+00   0.000e+00
   4.134e-02   0.000e+00   0.000e+00
   3.067e-02   0.000e+00   0.000e+00
   2.277e-02   0.000e+00   0.000e+00
   3.073e-02   0.000e+00   0.000e+00
   2.366e-02   0.000e+00   0.000e+00
   1.694e-02   0.000e+00   0.000e+00
   2.277e-02   0.000e+00   0.000e+00
   1.849e-02   0.000e+00   0.000e+00
   1.535e-02   0.000e+00   0.000e+00
   1.749e-02   0.000e+00   0.000e+00
   3.871e-01   0.000e+00   0.000e+00
   4.022e-01   0.000e+00   0.000e+00
   4.057e-01   0.000e+00   0.000e+00
   1.379e-02   0.000e+00   0.000e+00
   1.399e-02   0.000e+00   0.000e+00
   1.467e-02   0.000e+00   0.000e+00
   1.535e-02   0.000e+00   0.000e+00
   1.467e-02   0.000e+00   0.000e+00
   1.749e-02   0.000e+00   0.000e+00
   1.535e-02   0.000e+00   0.000e+00
   1.694e-02   0.000e+00   0.000e+00
   1.749e-02   0.000e+00   0.000e+00
   1.467e-02   0.000e+00   0.000e+00
   1.476e-02   0.000e+00   0.000e+00
   1.203e-02   0.000e+00   0.000e+00
   1.354e-02   0.000e+00   0.000e+00
   3.399e-01   0.000e+00   0.000e+00
   3.622e-01   0.000e+00   0.000e+00
   3.729e-01   0.000e+00   0.000e+00
   3.756e-01   0.000e+00   0.000e+00
   1.172e-02   0.000e+00   0.000e+00
   1.190e-02   0.000e+00   0.000e+00
   1.203e-02   0.000e+00   0.000e+00
   3.622e-01   0.000e+00   0.000e+00
   3.756e-01   0.000e+00   0.000e+00
   3.952e-01   0.000e+00   0.000e+00
   1.190e-02   0.000e+00   0.000e+00
   1.321e-02   0.000e+00   0.000e+00
   1.354e-02   0.000e+00   0.000e+00
   1.203e-02   0.000e+00   0.000e+00
   3.871e-01   0.000e+00   0.000e+00
   3.952e-01   0.000e+00   0.000e+00
   3.967e-01   0.000e+00   0.000e+00
   3.622e-01   0.000e+00   0.000e+00
   1.321e-02   0.000e+00   0.000e+00
   1.332e-02   0.000e+00   0.000e+00
   1.354e-02   0.000e+00   0.000e+00
   1.218e-02   0.000e+00   0.000e+00
   9.777e-03   0.000e+00   0.000e+00
   1.078e-02   0.000e+00   0.000e+00
   3.031e-01   0.000e+00   0.000e+00
   3.202e-01   0.000e+00   0.000e+00
   3.103e-01   0.000e+00   0.000e+00
   3.290e-01   0.000e+00   0.000e+00
   8.220e-03   0.000e+00   0.000e+00
   9.163e-03   0.000e+00   0.000e+00
   9.777e-03   0.000e+00   0.000e+00
   3.202e-01   0.000e+00   0.000e+00
   3.290e-01   0.000e+00   0.000e+00
   3.438e-01   0.000e+00   0.000e+00
   9.163e-03   0.000e+00   0.000e+00
   9.975e-03   0.000e+00   0.000e+00
   1.078e-02   0.000e+00   0.000e+00
   9.777e-03   0.000e+00   0.000e+00
   3.399e-01   0.000e+00   0.000e+00
   3.438e-01   0.000e+00   0.000e+00
   3.524e-01   0.000e+00   0.000e+00
   3.202e-01   0.000e+00   0.000e+00
   9.975e-03   0.000e+00   0.000e+00
   1.047e-02   0.000e+00   0.000e+00
   1.078e-02   0.000e+00   0.000e+00
   1.052e-02   0.000e+00   0.000e+00
   8.353e-03   0.000e+00   0.000e+00
   8.974e-03   0.000e+00   0.000e+00
   6.695e-03   0.000e+00   0.000e+00
   7.213e-03   0.000e+00   0.000e+00
   8.353e-03   0.000e+00   0.000e+00
   7.213e-03   0.000e+00   0.000e+00
   8.974e-03   0.000e+00   0.000e+00
   8.353e-03   0.000e+00   0.000e+00
   3.031e-01   0.000e+00   0.000e+00
   3.058e-01   0.000e+00   0.000e+00
   2.980e-01   0.000e+00   0.000e+00
   8.008e-03   0.000e+00   0.000e+00
   7.649e-03   0.000e+00   0.000e+00
   8.974e-03   0.000e+00   0.000e+00
   7.213e-03   0.000e+00   0.000e+00
   9.578e-03   0.000e+00   0.000e+00
   6.049e-03   0.000e+00   0.000e+00
   6.695e-03   0.000e+00   0.000e+00
   9.256e-03   0.000e+00   0.000e+00
   5.820e-03   0.000e+00   0.000e+00
   6.049e-03   0.000e+00   0.000e+00
   9.512e-03   0.000e+00   0.000e+00
   5.971e-03   0.000e+00   0.000e+00
   5.820e-03   0.000e+00   0.000e+00
   1.038e-02   0.000e+00   0.000e+00
   6.541e-03   0.000e+00   0.000e+00
   5.971e-03   0.000e+00   0.000e+00
   1.198e-02   0.000e+00   0.000e+00
   7.655e-03   0.000e+00   0.000e+00
   6.541e-03   0.000e+00   0.000e+00
   1.450e-02   0.000e+00   0.000e+00
   9.513e-03   0.000e+00   0.000e+00
   7.655e-03   0.000e+00   0.000e+00
   1.817e-02   0.000e+00   0.000e+00
   1.499e-02   0.000e+00   0.000e+00
   1.321e-02   0.000e+00   0.000e+00
   3.867e-01   0.000e+00   0.000e+00
   3.618e-01   0.000e+00   0.000e+00
   4.163e-01   0.000e+00   0.000e+00
   4.029e-01   0.000e+00   0.000e+00
   1.439e-02   0.000e+00   0.000e+00
   1.344e-02   0.000e+00   0.000e+00
   1.499e-02   0.000e+00   0.000e+00
   3.618e-01   0.000e+00   0.000e+00
   4.029e-01   0.000e+00   0.000e+00
   3.784e-01   0.000e+00   0.000e+00
   1.344e-02   0.000e+00   0.000e+00
   1.180e-02   0.000e+00   0.000e+00
   1.321e-02   0.000e+00   0.000e+00
   1.499e-02   0.000e+00   0.000e+00
   3.784e-01   0.000e+00   0.000e+00
   3.423e-01   0.000e+00   0.000e+00
   3.618e-01   0.000e+00   0.000e+00
   9.513e-03   0.000e+00   0.000e+00
   1.321e-02   0.000e+00   0.000e+00
   1.180e-02   0.000e+00   0.000e+00
   9.662e-03   0.000e+00   0.000e+00
   2.330e-02   0.000e+00   0.000e+00
   1.960e-02   0.000e+00   0.000e+00
   1.710e-02   0.000e+00   0.000e+00
   4.442e-01   0.000e+00   0.000e+00
   4.141e-01   0.000e+00   0.000e+00
   4.721e-01   0.000e+00   0.000e+00
   4.675e-01   0.000e+00   0.000e+00
   1.874e-02   0.000e+00   0.000e+00
   1.836e-02   0.000e+00   0.000e+00
   1.960e-02   0.000e+00   0.000e+00
   4.141e-01   0.000e+00   0.000e+00
   4.675e-01   0.000e+00   0.000e+00
   4.486e-01   0.000e+00   0.000e+00
   1.836e-02   0.000e+00   0.000e+00
   1.682e-02   0.000e+00   0.000e+00
   1.710e-02   0.000e+00   0.000e+00
   1.960e-02   0.000e+00   0.000e+00
   3.867e-01   0.000e+00   0.000e+00
   4.486e-01   0.000e+00   0.000e+00
   4.450e-01   0.000e+00   0.000e+00
   4.141e-01   0.000e+00   0.000e+00
   1.682e-02   0.000e+00   0.000e+00
   1.653e-02   0.000e+00   0.000e+00
   1.710e-02   0.000e+00   0.000e+00
   3.027e-02   0.000e+00   0.000e+00
   2.596e-02   0.000e+00   0.000e+00
   2.253e-02   0.000e+00   0.000e+00
   4.789e-01   0.000e+00   0.000e+00
   4.793e-01   0.000e+00   0.000e+00
   4.770e-01   0.000e+00   0.000e+00
   2.224e-02   0.000e+00   0.000e+00
   1.928e-02   0.000e+00   0.000e+00
   1.931e-02   0.000e+00   0.000e+00
   2.596e-02   0.000e+00   0.000e+00
   4.770e-01   0.000e+00   0.000e+00
   4.793e-01   0.000e+00   0.000e+00
   4.793e-01   0.000e+00   0.000e+00
   1.931e-02   0.000e+00   0.000e+00
   1.931e-02   0.000e+00   0.000e+00
   2.253e-02   0.000e+00   0.000e+00
   2.596e-02   0.000e+00   0.000e+00
   4.442e-01   0.000e+00   0.000e+00
   4.793e-01   0.000e+00   0.000e+00
   4.787e-01   0.000e+00   0.000e+00
   4.770e-01   0.000e+00   0.000e+00
   1.931e-02   0.000e+00   0.000e+00
   1.928e-02   0.000e+00   0.000e+00
   2.253e-02   0.000e+00   0.000e+00
   3.956e-02   0.000e+00   0.000e+00
   3.020e-02   0.000e+00   0.000e+00
   2.224e-02   0.000e+00   0.000e+00
   5.167e-02   0.000e+00   0.000e+00
   4.085e-02   0.000e+00   0.000e+00
   3.020e-02   0.000e+00   0.000e+00
   6.717e-02   0.000e+00   0.000e+00
   5.473e-02   0.000e+00   0.000e+00
   4.085e-02   0.000e+00   0.000e+00
   8.668e-02   0.000e+00   0.000e+00
   7.248e-02   0.000e+00   0.000e+00
   5.473e-02   0.000e+00   0.000e+00
   1.109e-01   0.000e+00   0.000e+00
   9.477e-02   0.000e+00   0.000e+00
   7.248e-02   0.000e+00   0.000e+00
   1.406e-01   0.000e+00   0.000e+00
   1.224e-01   0.000e+00   0.000e+00
   9.477e-02   0.000e+00   0.000e+00
   1.765e-01   0.000e+00   0.000e+00
   1.561e-01   0.000e+00   0.000e+00
   1.224e-01   0.000e+00   0.000e+00
   2.196e-01   0.000e+00   0.000e+00
   1.968e-01   0.000e+00   0.000e+00
   1.561e-01   0.000e+00   0.000e+00
   1.562e-01   0.000e+00   0.000e+00
   1.395e-01   0.000e+00   0.000e+00
   1.780e-01   0.000e+00   0.000e+00
   1.225e-01   0.000e+00   0.000e+00
   1.078e-01   0.000e+00   0.000e+00
   1.395e-01   0.000e+00   0.000e+00
   9.503e-02   0.000e+00   0.000e+00
   8.212e-02   0.000e+00   0.000e+00
   1.078e-01   0.000e+00   0.000e+00
   7.283e-02   0.000e+00   0.000e+00
   6.161e-02   0.000e+00   0.000e+00
   8.212e-02   0.000e+00   0.000e+00
   5.516e-02   0.000e+00   0.000e+00
   4.550e-02   0.000e+00   0.000e+00
   6.161e-02   0.000e+00   0.000e+00
   4.134e-02   0.000e+00   0.000e+00
   3.311e-02   0.000e+00   0.000e+00
   4.550e-02   0.000e+00   0.000e+00
   3.073e-02   0.000e+00   0.000e+00
   2.382e-02   0.000e+00   0.000e+00
   3.311e-02   0.000e+00   0.000e+00
   2.277e-02   0.000e+00   0.000e+00
   1.704e-02   0.000e+00   0.000e+00
   2.382e-02   0.000e+00   0.000e+00
   1.694e-02   0.000e+00   0.000e+00
   1.227e-02   0.000e+00   0.000e+00
   1.704e-02   0.000e+00   0.000e+00
   3.871e-01   0.000e+00   0.000e+00
   3.518e-01   0.000e+00   0.000e+00
   3.794e-01   0.000e+00   0.000e+00
   3.191e-01   0.000e+00   0.000e+00
   3.467e-01   0.000e+00   0.000e+00
   3.518e-01   0.000e+00   0.000e+00
   3.467e-01   0.000e+00   0.000e+00
   3.794e-01   0.000e+00   0.000e+00
   3.518e-01   0.000e+00   0.000e+00
   3.787e-01   0.000e+00   0.000e+00
   3.554e-01   0.000e+00   0.000e+00
   3.794e-01   0.000e+00   0.000e+00
   3.467e-01   0.000e+00   0.000e+00
   1.227e-02   0.000e+00   0.000e+00
   1.233e-02   0.000e+00   0.000e+00
   1.099e-02   0.000e+00   0.000e+00
   3.399e-01   0.000e+00   0.000e+00
   2.718e-01   0.000e+00   0.000e+00
   3.191e-01   0.000e+00   0.000e+00
   3.031e-01   0.000e+00   0.000e+00
   2.349e-01   0.000e+00   0.000e+00
   2.718e-01   0.000e+00   0.000e+00
   2.607e-01   0.000e+00   0.000e+00
   2.439e-01   0.000e+00   0.000e+00
   2.533e-01   0.000e+00   0.000e+00
   6.695e-03   0.000e+00   0.000e+00
   5.483e-03   0.000e+00   0.000e+00
   6.131e-03   0.000e+00   0.000e+00
   5.566e-03   0.000e+00   0.000e+00
   2.086e-01   0.000e+00   0.000e+00
   2.204e-01   0.000e+00   0.000e+00
   2.350e-01   0.000e+00   0.000e+00
   2.391e-01   0.000e+00   0.000e+00
   5.299e-03   0.000e+00   0.000e+00
   5.418e-03   0.000e+00   0.000e+00
   5.483e-03   0.000e+00   0.000e+00
   2.204e-01   0.000e+00   0.000e+00
   2.533e-01   0.000e+00   0.000e+00
   2.439e-01   0.000e+00   0.000e+00
   2.391e-01   0.000e+00   0.000e+00
   5.566e-03   0.000e+00   0.000e+00
   5.418e-03   0.000e+00   0.000e+00
   5.483e-03   0.000e+00   0.000e+00
   2.349e-01   0.000e+00   0.000e+00
   2.533e-01   0.000e+00   0.000e+00
   2.204e-01   0.000e+00   0.000e+00
   6.049e-03   0.000e+00   0.000e+00
   4.977e-03   0.000e+00   0.000e+00
   5.181e-03   0.000e+00   0.000e+00
   4.303e-03   0.000e+00   0.000e+00
   4.451e-03   0.000e+00   0.000e+00
   4.977e-03   0.000e+00   0.000e+00
   4.451e-03   0.000e+00   0.000e+00
   5.181e-03   0.000e+00   0.000e+00
   4.977e-03   0.000e+00   0.000e+00
   2.086e-01   0.000e+00   0.000e+00
   2.182e-01   0.000e+00   0.000e+00
   2.005e-01   0.000e+00   0.000e+00
   4.852e-03   0.000e+00   0.000e+00
   4.476e-03   0.000e+00   0.000e+00
   5.181e-03   0.000e+00   0.000e+00
   4.451e-03   0.000e+00   0.000e+00
   5.820e-03   0.000e+00   0.000e+00
   4.168e-03   0.000e+00   0.000e+00
   4.303e-03   0.000e+00   0.000e+00
   5.971e-03   0.000e+00   0.000e+00
   4.213e-03   0.000e+00   0.000e+00
   4.168e-03   0.000e+00   0.000e+00
   6.541e-03   0.000e+00   0.000e+00
   4.489e-03   0.000e+00   0.000e+00
   4.213e-03   0.000e+00   0.000e+00
   7.655e-03   0.000e+00   0.000e+00
   6.199e-03   0.000e+00   0.000e+00
   5.689e-03   0.000e+00   0.000e+00
   2.347e-01   0.000e+00   0.000e+00
   2.287e-01   0.000e+00   0.000e+00
   2.471e-01   0.000e+00   0.000e+00
   4.972e-03   0.000e+00   0.000e+00
   5.502e-03   0.000e+00   0.000e+00
   4.753e-03   0.000e+00   0.000e+00
   6.199e-03   0.000e+00   0.000e+00
   4.753e-03   0.000e+00   0.000e+00
   5.689e-03   0.000e+00   0.000e+00
   6.199e-03   0.000e+00   0.000e+00
   4.489e-03   0.000e+00   0.000e+00
   5.689e-03   0.000e+00   0.000e+00
   4.753e-03   0.000e+00   0.000e+00
   3.369e-01   0.000e+00   0.000e+00
   3.257e-01   0.000e+00   0.000e+00
   3.041e-01   0.000e+00   0.000e+00
   2.845e-01   0.000e+00   0.000e+00
   9.513e-03   0.000e+00   0.000e+00
   9.373e-03   0.000e+00   0.000e+00
   8.785e-03   0.000e+00   0.000e+00
   2.712e-01   0.000e+00   0.000e+00
   2.516e-01   0.000e+00   0.000e+00
   3.041e-01   0.000e+00   0.000e+00
   2.516e-01   0.000e+00   0.000e+00
   2.845e-01   0.000e+00   0.000e+00
   3.041e-01   0.000e+00   0.000e+00
   2.347e-01   0.000e+00   0.000e+00
   2.845e-01   0.000e+00   0.000e+00
   2.516e-01   0.000e+00   0.000e+00
   3.867e-01   0.000e+00   0.000e+00
   3.184e-01   0.000e+00   0.000e+00
   2.712e-01   0.000e+00   0.000e+00
   4.442e-01   0.000e+00   0.000e+00
   3.760e-01   0.000e+00   0.000e+00
   3.184e-01   0.000e+00   0.000e+00
   4.704e-01   0.000e+00   0.000e+00
   4.619e-01   0.000e+00   0.000e+00
   4.416e-01   0.000e+00   0.000e+00
   2.224e-02   0.000e+00   0.000e+00
   1.904e-02   0.000e+00   0.000e+00
   1.853e-02   0.000e+00   0.000e+00
   1.779e-02   0.000e+00   0.000e+00
   4.358e-01   0.000e+00   0.000e+00
   4.532e-01   0.000e+00   0.000e+00
   4.088e-01   0.000e+00   0.000e+00
   1.631e-02   0.000e+00   0.000e+00
   1.568e-02   0.000e+00   0.000e+00
   1.707e-02   0.000e+00   0.000e+00
   1.904e-02   0.000e+00   0.000e+00
   4.088e-01   0.000e+00   0.000e+00
   4.416e-01   0.000e+00   0.000e+00
   4.619e-01   0.000e+00   0.000e+00
   4.532e-01   0.000e+00   0.000e+00
   1.779e-02   0.000e+00   0.000e+00
   1.707e-02   0.000e+00   0.000e+00
   1.904e-02   0.000e+00   0.000e+00
   3.760e-01   0.000e+00   0.000e+00
   4.416e-01   0.000e+00   0.000e+00
   4.088e-01   0.000e+00   0.000e+00
   3.020e-02   0.000e+00   0.000e+00
   2.312e-02   0.000e+00   0.000e+00
   1.631e-02   0.000e+00   0.000e+00
   4.085e-02   0.000e+00   0.000e+00
   3.250e-02   0.000e+00   0.000e+00
   2.312e-02   0.000e+00   0.000e+00
   5.473e-02   0.000e+00   0.000e+00
   4.498e-02   0.000e+00   0.000e+00
   3.250e-02   0.000e+00   0.000e+00
   7.248e-02   0.000e+00   0.000e+00
   6.119e-02   0.000e+00   0.000e+00
   4.498e-02   0.000e+00   0.000e+00
   9.477e-02   0.000e+00   0.000e+00
   8.181e-02   0.000e+00   0.000e+00
   6.119e-02   0.000e+00   0.000e+00
   1.224e-01   0.000e+00   0.000e+00
   1.076e-01   0.000e+00   0.000e+00
   8.181e-02   0.000e+00   0.000e+00
   1.561e-01   0.000e+00   0.000e+00
   1.394e-01   0.000e+00   0.000e+00
   1.076e-01   0.000e+00   0.000e+00
   1.968e-01   0.000e+00   0.000e+00
   1.780e-01   0.000e+00   0.000e+00
   1.394e-01   0.000e+00   0.000e+00
   1.395e-01   0.000e+00   0.000e+00
   1.261e-01   0.000e+00   0.000e+00
   1.628e-01   0.000e+00   0.000e+00
   1.078e-01   0.000e+00   0.000e+00
   9.607e-02   0.000e+00   0.000e+00
   1.261e-01   0.000e+00   0.000e+00
   8.212e-02   0.000e+00   0.000e+00
   7.194e-02   0.000e+00   0.000e+00
   9.607e-02   0.000e+00   0.000e+00
   6.161e-02   0.000e+00   0.000e+00
   5.286e-02   0.000e+00   0.000e+00
   7.194e-02   0.000e+00   0.000e+00
   4.550e-02   0.000e+00   0.000e+00
   3.809e-02   0.000e+00   0.000e+00
   5.286e-02   0.000e+00   0.000e+00
   3.311e-02   0.000e+00   0.000e+00
   2.693e-02   0.000e+00   0.000e+00
   3.809e-02   0.000e+00   0.000e+00
   2.382e-02   0.000e+00   0.000e+00
   1.877e-02   0.000e+00   0.000e+00
   2.693e-02   0.000e+00   0.000e+00
   1.704e-02   0.000e+00   0.000e+00
   1.303e-02   0.000e+00   0.000e+00
   1.877e-02   0.000e+00   0.000e+00
   1.227e-02   0.000e+00   0.000e+00
   9.211e-03   0.000e+00   0.000e+00
   1.303e-02   0.000e+00   0.000e+00
   3.191e-01   0.000e+00   0.000e+00
   2.891e-01   0.000e+00   0.000e+00
   3.167e-01   0.000e+00   0.000e+00
   2.617e-01   0.000e+00   0.000e+00
   2.893e-01   0.000e+00   0.000e+00
   2.891e-01   0.000e+00   0.000e+00
   2.893e-01   0.000e+00   0.000e+00
   3.167e-01   0.000e+00   0.000e+00
   2.891e-01   0.000e+00   0.000e+00
   3.169e-01   0.000e+00   0.000e+00
   2.929e-01   0.000e+00   0.000e+00
   3.167e-01   0.000e+00   0.000e+00
   2.893e-01   0.000e+00   0.000e+00
   9.211e-03   0.000e+00   0.000e+00
   9.045e-03   0.000e+00   0.000e+00
   8.022e-03   0.000e+00   0.000e+00
   2.718e-01   0.000e+00   0.000e+00
   2.142e-01   0.000e+00   0.000e+00
   2.617e-01   0.000e+00   0.000e+00
   2.349e-01   0.000e+00   0.000e+00
   1.771e-01   0.000e+00   0.000e+00
   2.142e-01   0.000e+00   0.000e+00
   2.086e-01   0.000e+00   0.000e+00
   1.506e-01   0.000e+00   0.000e+00
   1.771e-01   0.000e+00   0.000e+00
   1.787e-01   0.000e+00   0.000e+00
   1.638e-01   0.000e+00   0.000e+00
   1.692e-01   0.000e+00   0.000e+00
   4.303e-03   0.000e+00   0.000e+00
   3.978e-03   0.000e+00   0.000e+00
   4.135e-03   0.000e+00   0.000e+00
   3.991e-03   0.000e+00   0.000e+00
   1.350e-01   0.000e+00   0.000e+00
   1.415e-01   0.000e+00   0.000e+00
   1.560e-01   0.000e+00   0.000e+00
   1.602e-01   0.000e+00   0.000e+00
   3.949e-03   0.000e+00   0.000e+00
   3.969e-03   0.000e+00   0.000e+00
   3.978e-03   0.000e+00   0.000e+00
   1.415e-01   0.000e+00   0.000e+00
   1.692e-01   0.000e+00   0.000e+00
   1.638e-01   0.000e+00   0.000e+00
   1.602e-01   0.000e+00   0.000e+00
   3.991e-03   0.000e+00   0.000e+00
   3.969e-03   0.000e+00   0.000e+00
   3.978e-03   0.000e+00   0.000e+00
   1.506e-01   0.000e+00   0.000e+00
   1.692e-01   0.000e+00   0.000e+00
   1.415e-01   0.000e+00   0.000e+00
   4.168e-03   0.000e+00   0.000e+00
   3.891e-03   0.000e+00   0.000e+00
   3.921e-03   0.000e+00   0.000e+00
   3.930e-03   0.000e+00   0.000e+00
   3.951e-03   0.000e+00   0.000e+00
   3.891e-03   0.000e+00   0.000e+00
   3.951e-03   0.000e+00   0.000e+00
   3.921e-03   0.000e+00   0.000e+00
   3.891e-03   0.000e+00   0.000e+00
   1.350e-01   0.000e+00   0.000e+00
   1.427e-01   0.000e+00   0.000e+00
   1.323e-01   0.000e+00   0.000e+00
   3.926e-03   0.000e+00   0.000e+00
   3.962e-03   0.000e+00   0.000e+00
   3.921e-03   0.000e+00   0.000e+00
   3.951e-03   0.000e+00   0.000e+00
   4.213e-03   0.000e+00   0.000e+00
   3.861e-03   0.000e+00   0.000e+00
   3.930e-03   0.000e+00   0.000e+00
   4.489e-03   0.000e+00   0.000e+00
   4.005e-03   0.000e+00   0.000e+00
   3.918e-03   0.000e+00   0.000e+00
   1.507e-01   0.000e+00   0.000e+00
   1.493e-01   0.000e+00   0.000e+00
   1.556e-01   0.000e+00   0.000e+00
   3.823e-03   0.000e+00   0.000e+00
   3.835e-03   0.000e+00   0.000e+00
   3.828e-03   0.000e+00   0.000e+00
   4.005e-03   0.000e+00   0.000e+00
   3.828e-03   0.000e+00   0.000e+00
   3.918e-03   0.000e+00   0.000e+00
   4.005e-03   0.000e+00   0.000e+00
   3.861e-03   0.000e+00   0.000e+00
   3.918e-03   0.000e+00   0.000e+00
   3.828e-03   0.000e+00   0.000e+00
   2.347e-01   0.000e+00   0.000e+00
   1.767e-01   0.000e+00   0.000e+00
   1.507e-01   0.000e+00   0.000e+00
   2.712e-01   0.000e+00   0.000e+00
   2.133e-01   0.000e+00   0.000e+00
   1.767e-01   0.000e+00   0.000e+00
   3.184e-01   0.000e+00   0.000e+00
   2.605e-01   0.000e+00   0.000e+00
   2.133e-01   0.000e+00   0.000e+00
   3.760e-01   0.000e+00   0.000e+00
   3.182e-01   0.000e+00   0.000e+00
   2.605e-01   0.000e+00   0.000e+00
   4.284e-01   0.000e+00   0.000e+00
   4.051e-01   0.000e+00   0.000e+00
   3.786e-01   0.000e+00   0.000e+00
   1.631e-02   0.000e+00   0.000e+00
   1.398e-02   0.000e+00   0.000e+00
   1.510e-02   0.000e+00   0.000e+00
   1.336e-02   0.000e+00   0.000e+00
   3.718e-01   0.000e+00   0.000e+00
   3.948e-01   0.000e+00   0.000e+00
   3.510e-01   0.000e+00   0.000e+00
   1.203e-02   0.000e+00   0.000e+00
   1.111e-02   0.000e+00   0.000e+00
   1.264e-02   0.000e+00   0.000e+00
   1.398e-02   0.000e+00   0.000e+00
   3.510e-01   0.000e+00   0.000e+00
   3.786e-01   0.000e+00   0.000e+00
   4.051e-01   0.000e+00   0.000e+00
   3.948e-01   0.000e+00   0.000e+00
   1.336e-02   0.000e+00   0.000e+00
   1.264e-02   0.000e+00   0.000e+00
   1.398e-02   0.000e+00   0.000e+00
   3.182e-01   0.000e+00   0.000e+00
   3.786e-01   0.000e+00   0.000e+00
   3.510e-01   0.000e+00   0.000e+00
   2.312e-02   0.000e+00   0.000e+00
   1.788e-02   0.000e+00   0.000e+00
   1.203e-02   0.000e+00   0.000e+00
   3.250e-02   0.000e+00   0.000e+00
   2.617e-02   0.000e+00   0.000e+00
   1.788e-02   0.000e+00   0.000e+00
   4.498e-02   0.000e+00   0.000e+00
   3.746e-02   0.000e+00   0.000e+00
   2.617e-02   0.000e+00   0.000e+00
   6.119e-02   0.000e+00   0.000e+00
   5.237e-02   0.000e+00   0.000e+00
   3.746e-02   0.000e+00   0.000e+00
   8.181e-02   0.000e+00   0.000e+00
   7.157e-02   0.000e+00   0.000e+00
   5.237e-02   0.000e+00   0.000e+00
   1.076e-01   0.000e+00   0.000e+00
   9.583e-02   0.000e+00   0.000e+00
   7.157e-02   0.000e+00   0.000e+00
   1.394e-01   0.000e+00   0.000e+00
   1.259e-01   0.000e+00   0.000e+00
   9.583e-02   0.000e+00   0.000e+00
   1.780e-01   0.000e+00   0.000e+00
   1.628e-01   0.000e+00   0.000e+00
   1.259e-01   0.000e+00   0.000e+00
   1.261e-01   0.000e+00   0.000e+00
   1.156e-01   0.000e+00   0.000e+00
   1.509e-01   0.000e+00   0.000e+00
   9.607e-02   0.000e+00   0.000e+00
   8.697e-02   0.000e+00   0.000e+00
   1.156e-01   0.000e+00   0.000e+00
   7.194e-02   0.000e+00   0.000e+00
   6.412e-02   0.000e+00   0.000e+00
   8.697e-02   0.000e+00   0.000e+00
   5.286e-02   0.000e+00   0.000e+00
   4.622e-02   0.000e+00   0.000e+00
   6.412e-02   0.000e+00   0.000e+00
   3.809e-02   0.000e+00   0.000e+00
   3.255e-02   0.000e+00   0.000e+00
   4.622e-02   0.000e+00   0.000e+00
   2.693e-02   0.000e+00   0.000e+00
   2.241e-02   0.000e+00   0.000e+00
   3.255e-02   0.000e+00   0.000e+00
   1.877e-02   0.000e+00   0.000e+00
   1.520e-02   0.000e+00   0.000e+00
   2.241e-02   0.000e+00   0.000e+00
   1.303e-02   0.000e+00   0.000e+00
   1.035e-02   0.000e+00   0.000e+00
   1.520e-02   0.000e+00   0.000e+00
   9.211e-03   0.000e+00   0.000e+00
   7.365e-03   0.000e+00   0.000e+00
   1.035e-02   0.000e+00   0.000e+00
   2.617e-01   0.000e+00   0.000e+00
   2.369e-01   0.000e+00   0.000e+00
   2.640e-01   0.000e+00   0.000e+00
   2.602e-01   0.000e+00   0.000e+00
   7.000e-03   0.000e+00   0.000e+00
   6.884e-03   0.000e+00   0.000e+00
   7.028e-03   0.000e+00   0.000e+00
   2.148e-01   0.000e+00   0.000e+00
   2.275e-01   0.000e+00   0.000e+00
   2.398e-01   0.000e+00   0.000e+00
   2.369e-01   0.000e+00   0.000e+00
   6.055e-03   0.000e+00   0.000e+00
   6.327e-03   0.000e+00   0.000e+00
   6.427e-03   0.000e+00   0.000e+00
   2.602e-01   0.000e+00   0.000e+00
   2.398e-01   0.000e+00   0.000e+00
   2.369e-01   0.000e+00   0.000e+00
   6.427e-03   0.000e+00   0.000e+00
   7.028e-03   0.000e+00   0.000e+00
   6.884e-03   0.000e+00   0.000e+00
   6.327e-03   0.000e+00   0.000e+00
   7.365e-03   0.000e+00   0.000e+00
   7.028e-03   0.000e+00   0.000e+00
   6.427e-03   0.000e+00   0.000e+00
   2.142e-01   0.000e+00   0.000e+00
   1.671e-01   0.000e+00   0.000e+00
   2.148e-01   0.000e+00   0.000e+00
   1.771e-01   0.000e+00   0.000e+00
   1.296e-01   0.000e+00   0.000e+00
   1.671e-01   0.000e+00   0.000e+00
   1.506e-01   0.000e+00   0.000e+00
   1.028e-01   0.000e+00   0.000e+00
   1.296e-01   0.000e+00   0.000e+00
   1.350e-01   0.000e+00   0.000e+00
   8.697e-02   0.000e+00   0.000e+00
   1.028e-01   0.000e+00   0.000e+00
   1.107e-01   0.000e+00   0.000e+00
   1.053e-01   0.000e+00   0.000e+00
   1.060e-01   0.000e+00   0.000e+00
   3.930e-03   0.000e+00   0.000e+00
   4.255e-03   0.000e+00   0.000e+00
   4.173e-03   0.000e+00   0.000e+00
   4.264e-03   0.000e+00   0.000e+00
   8.232e-02   0.000e+00   0.000e+00
   8.323e-02   0.000e+00   0.000e+00
   8.511e-02   0.000e+00   0.000e+00
   9.642e-02   0.000e+00   0.000e+00
   4.764e-03   0.000e+00   0.000e+00
   4.451e-03   0.000e+00   0.000e+00
   4.255e-03   0.000e+00   0.000e+00
   8.323e-02   0.000e+00   0.000e+00
   1.060e-01   0.000e+00   0.000e+00
   1.053e-01   0.000e+00   0.000e+00
   9.642e-02   0.000e+00   0.000e+00
   4.264e-03   0.000e+00   0.000e+00
   4.451e-03   0.000e+00   0.000e+00
   4.255e-03   0.000e+00   0.000e+00
   8.697e-02   0.000e+00   0.000e+00
   1.060e-01   0.000e+00   0.000e+00
   8.323e-02   0.000e+00   0.000e+00
   3.861e-03   0.000e+00   0.000e+00
   4.121e-03   0.000e+00   0.000e+00
   4.204e-03   0.000e+00   0.000e+00
   4.637e-03   0.000e+00   0.000e+00
   4.771e-03   0.000e+00   0.000e+00
   4.121e-03   0.000e+00   0.000e+00
   4.771e-03   0.000e+00   0.000e+00
   4.204e-03   0.000e+00   0.000e+00
   4.121e-03   0.000e+00   0.000e+00
   8.232e-02   0.000e+00   0.000e+00
   8.352e-02   0.000e+00   0.000e+00
   8.240e-02   0.000e+00   0.000e+00
   4.813e-03   0.000e+00   0.000e+00
   4.851e-03   0.000e+00   0.000e+00
   4.204e-03   0.000e+00   0.000e+00
   4.771e-03   0.000e+00   0.000e+00
   1.507e-01   0.000e+00   0.000e+00
   1.255e-01   0.000e+00   0.000e+00
   1.307e-01   0.000e+00   0.000e+00
   1.175e-01   0.000e+00   0.000e+00
   3.880e-03   0.000e+00   0.000e+00
   4.004e-03   0.000e+00   0.000e+00
   4.015e-03   0.000e+00   0.000e+00
   1.028e-01   0.000e+00   0.000e+00
   9.390e-02   0.000e+00   0.000e+00
   1.255e-01   0.000e+00   0.000e+00
   9.390e-02   0.000e+00   0.000e+00
   1.175e-01   0.000e+00   0.000e+00
   1.131e-01   0.000e+00   0.000e+00
   1.255e-01   0.000e+00   0.000e+00
   4.004e-03   0.000e+00   0.000e+00
   4.064e-03   0.000e+00   0.000e+00
   4.015e-03   0.000e+00   0.000e+00
   1.131e-01   0.000e+00   0.000e+00
   8.982e-02   0.000e+00   0.000e+00
   9.390e-02   0.000e+00   0.000e+00
   4.637e-03   0.000e+00   0.000e+00
   4.015e-03   0.000e+00   0.000e+00
   4.064e-03   0.000e+00   0.000e+00
   4.568e-03   0.000e+00   0.000e+00
   1.767e-01   0.000e+00   0.000e+00
   1.289e-01   0.000e+00   0.000e+00
   1.028e-01   0.000e+00   0.000e+00
   2.133e-01   0.000e+00   0.000e+00
   1.656e-01   0.000e+00   0.000e+00
   1.289e-01   0.000e+00   0.000e+00
   2.605e-01   0.000e+00   0.000e+00
   2.130e-01   0.000e+00   0.000e+00
   1.656e-01   0.000e+00   0.000e+00
   3.182e-01   0.000e+00   0.000e+00
   2.709e-01   0.000e+00   0.000e+00
   2.130e-01   0.000e+00   0.000e+00
   3.517e-01   0.000e+00   0.000e+00
   3.371e-01   0.000e+00   0.000e+00
   3.261e-01   0.000e+00   0.000e+00
   1.203e-02   0.000e+00   0.000e+00
   1.040e-02   0.000e+00   0.000e+00
   9.861e-03   0.000e+00   0.000e+00
   9.007e-03   0.000e+00   0.000e+00
   9.045e-03   0.000e+00   0.000e+00
   7.257e-03   0.000e+00   0.000e+00
   1.040e-02   0.000e+00   0.000e+00
   3.371e-01   0.000e+00   0.000e+00
   3.068e-01   0.000e+00   0.000e+00
   3.261e-01   0.000e+00   0.000e+00
   7.257e-03   0.000e+00   0.000e+00
   9.007e-03   0.000e+00   0.000e+00
   7.406e-03   0.000e+00   0.000e+00
   1.040e-02   0.000e+00   0.000e+00
   2.709e-01   0.000e+00   0.000e+00
   3.261e-01   0.000e+00   0.000e+00
   3.068e-01   0.000e+00   0.000e+00
   3.018e-01   0.000e+00   0.000e+00
   7.406e-03   0.000e+00   0.000e+00
   7.170e-03   0.000e+00   0.000e+00
   7.257e-03   0.000e+00   0.000e+00
   1.788e-02   0.000e+00   0.000e+00
   1.410e-02   0.000e+00   0.000e+00
   9.045e-03   0.000e+00   0.000e+00
   2.617e-02   0.000e+00   0.000e+00
   2.150e-02   0.000e+00   0.000e+00
   1.410e-02   0.000e+00   0.000e+00
   3.746e-02   0.000e+00   0.000e+00
   3.182e-02   0.000e+00   0.000e+00
   2.150e-02   0.000e+00   0.000e+00
   5.237e-02   0.000e+00   0.000e+00
   4.566e-02   0.000e+00   0.000e+00
   3.182e-02   0.000e+00   0.000e+00
   7.157e-02   0.000e+00   0.000e+00
   6.370e-02   0.000e+00   0.000e+00
   4.566e-02   0.000e+00   0.000e+00
   9.583e-02   0.000e+00   0.000e+00
   8.670e-02   0.000e+00   0.000e+00
   6.370e-02   0.000e+00   0.000e+00
   1.259e-01   0.000e+00   0.000e+00
   1.155e-01   0.000e+00   0.000e+00
   8.670e-02   0.000e+00   0.000e+00
   1.628e-01   0.000e+00   0.000e+00
   1.509e-01   0.000e+00   0.000e+00
   1.155e-01   0.000e+00   0.000e+00
   1.156e-01   0.000e+00   0.000e+00
   1.078e-01   0.000e+00   0.000e+00
   1.419e-01   0.000e+00   0.000e+00
   8.697e-02   0.000e+00   0.000e+00
   8.021e-02   0.000e+00   0.000e+00
   1.078e-01   0.000e+00   0.000e+00
   6.412e-02   0.000e+00   0.000e+00
   5.835e-02   0.000e+00   0.000e+00
   8.021e-02   0.000e+00   0.000e+00
   4.622e-02   0.000e+00   0.000e+00
   4.138e-02   0.000e+00   0.000e+00
   5.835e-02   0.000e+00   0.000e+00
   3.255e-02   0.000e+00   0.000e+00
   2.857e-02   0.000e+00   0.000e+00
   4.138e-02   0.000e+00   0.000e+00
   2.241e-02   0.000e+00   0.000e+00
   1.924e-02   0.000e+00   0.000e+00
   2.857e-02   0.000e+00   0.000e+00
   1.520e-02   0.000e+00   0.000e+00
   1.278e-02   0.000e+00   0.000e+00
   1.924e-02   0.000e+00   0.000e+00
   1.035e-02   0.000e+00   0.000e+00
   8.654e-03   0.000e+00   0.000e+00
   1.278e-02   0.000e+00   0.000e+00
   7.365e-03   0.000e+00   0.000e+00
   6.392e-03   0.000e+00   0.000e+00
   8.654e-03   0.000e+00   0.000e+00
   2.148e-01   0.000e+00   0.000e+00
   1.954e-01   0.000e+00   0.000e+00
   2.170e-01   0.000e+00   0.000e+00
   1.956e-01   0.000e+00   0.000e+00
   5.864e-03   0.000e+00   0.000e+00
   5.591e-03   0.000e+00   0.000e+00
   6.038e-03   0.000e+00   0.000e+00
   1.953e-01   0.000e+00   0.000e+00
   1.955e-01   0.000e+00   0.000e+00
   1.954e-01   0.000e+00   0.000e+00
   5.548e-03   0.000e+00   0.000e+00
   5.819e-03   0.000e+00   0.000e+00
   5.588e-03   0.000e+00   0.000e+00
   5.590e-03   0.000e+00   0.000e+00
   1.956e-01   0.000e+00   0.000e+00
   1.955e-01   0.000e+00   0.000e+00
   1.954e-01   0.000e+00   0.000e+00
   5.819e-03   0.000e+00   0.000e+00
   6.038e-03   0.000e+00   0.000e+00
   5.591e-03   0.000e+00   0.000e+00
   5.590e-03   0.000e+00   0.000e+00
   6.392e-03   0.000e+00   0.000e+00
   6.038e-03   0.000e+00   0.000e+00
   5.819e-03   0.000e+00   0.000e+00
   1.671e-01   0.000e+00   0.000e+00
   1.475e-01   0.000e+00   0.000e+00
   1.702e-01   0.000e+00   0.000e+00
   1.307e-01   0.000e+00   0.000e+00
   1.535e-01   0.000e+00   0.000e+00
   1.475e-01   0.000e+00   0.000e+00
   1.535e-01   0.000e+00   0.000e+00
   1.702e-01   0.000e+00   0.000e+00
   1.475e-01   0.000e+00   0.000e+00
   1.752e-01   0.000e+00   0.000e+00
   1.647e-01   0.000e+00   0.000e+00
   1.702e-01   0.000e+00   0.000e+00
   1.535e-01   0.000e+00   0.000e+00
   5.548e-03   0.000e+00   0.000e+00
   5.486e-03   0.000e+00   0.000e+00
   5.500e-03   0.000e+00   0.000e+00
   1.296e-01   0.000e+00   0.000e+00
   9.236e-02   0.000e+00   0.000e+00
   1.307e-01   0.000e+00   0.000e+00
   1.028e-01   0.000e+00   0.000e+00
   6.485e-02   0.000e+00   0.000e+00
   9.236e-02   0.000e+00   0.000e+00
   8.697e-02   0.000e+00   0.000e+00
   4.877e-02   0.000e+00   0.000e+00
   6.485e-02   0.000e+00   0.000e+00
   8.232e-02   0.000e+00   0.000e+00
   4.381e-02   0.000e+00   0.000e+00
   4.877e-02   0.000e+00   0.000e+00
   7.860e-02   0.000e+00   0.000e+00
   6.939e-02   0.000e+00   0.000e+00
   6.731e-02   0.000e+00   0.000e+00
   6.360e-02   0.000e+00   0.000e+00
   4.637e-03   0.000e+00   0.000e+00
   4.939e-03   0.000e+00   0.000e+00
   5.309e-03   0.000e+00   0.000e+00
   4.928e-02   0.000e+00   0.000e+00
   4.533e-02   0.000e+00   0.000e+00
   6.731e-02   0.000e+00   0.000e+00
   4.533e-02   0.000e+00   0.000e+00
   6.360e-02   0.000e+00   0.000e+00
   6.731e-02   0.000e+00   0.000e+00
   4.381e-02   0.000e+00   0.000e+00
   6.360e-02   0.000e+00   0.000e+00
   4.533e-02   0.000e+00   0.000e+00
   1.028e-01   0.000e+00   0.000e+00
   6.492e-02   0.000e+00   0.000e+00
   4.928e-02   0.000e+00   0.000e+00
   1.289e-01   0.000e+00   0.000e+00
   9.128e-02   0.000e+00   0.000e+00
   6.492e-02   0.000e+00   0.000e+00
   1.656e-01   0.000e+00   0.000e+00
   1.284e-01   0.000e+00   0.000e+00
   9.128e-02   0.000e+00   0.000e+00
   2.130e-01   0.000e+00   0.000e+00
   1.760e-01   0.000e+00   0.000e+00
   1.284e-01   0.000e+00   0.000e+00
   2.709e-01   0.000e+00   0.000e+00
   2.511e-01   0.000e+00   0.000e+00
   2.209e-01   0.000e+00   0.000e+00
   2.317e-01   0.000e+00   0.000e+00
   2.361e-01   0.000e+00   0.000e+00
   2.037e-01   0.000e+00   0.000e+00
   2.511e-01   0.000e+00   0.000e+00
   4.443e-03   0.000e+00   0.000e+00
   4.379e-03   0.000e+00   0.000e+00
   4.513e-03   0.000e+00   0.000e+00
   2.037e-01   0.000e+00   0.000e+00
   2.209e-01   0.000e+00   0.000e+00
   2.511e-01   0.000e+00   0.000e+00
   1.760e-01   0.000e+00   0.000e+00
   2.209e-01   0.000e+00   0.000e+00
   2.037e-01   0.000e+00   0.000e+00
   9.045e-03   0.000e+00   0.000e+00
   7.043e-03   0.000e+00   0.000e+00
   4.443e-03   0.000e+00   0.000e+00
   1.410e-02   0.000e+00   0.000e+00
   1.147e-02   0.000e+00   0.000e+00
   7.043e-03   0.000e+00   0.000e+00
   2.150e-02   0.000e+00   0.000e+00
   1.819e-02   0.000e+00   0.000e+00
   1.147e-02   0.000e+00   0.000e+00
   3.182e-02   0.000e+00   0.000e+00
   2.775e-02   0.000e+00   0.000e+00
   1.819e-02   0.000e+00   0.000e+00
   4.566e-02   0.000e+00   0.000e+00
   4.076e-02   0.000e+00   0.000e+00
   2.775e-02   0.000e+00   0.000e+00
   6.370e-02   0.000e+00   0.000e+00
   5.790e-02   0.000e+00   0.000e+00
   4.076e-02   0.000e+00   0.000e+00
   8.670e-02   0.000e+00   0.000e+00
   7.992e-02   0.000e+00   0.000e+00
   5.790e-02   0.000e+00   0.000e+00
   1.155e-01   0.000e+00   0.000e+00
   1.076e-01   0.000e+00   0.000e+00
   7.992e-02   0.000e+00   0.000e+00
   1.509e-01   0.000e+00   0.000e+00
   1.419e-01   0.000e+00   0.000e+00
   1.076e-01   0.000e+00   0.000e+00
   1.078e-01   0.000e+00   0.000e+00
   1.024e-01   0.000e+00   0.000e+00
   1.357e-01   0.000e+00   0.000e+00
   8.021e-02   0.000e+00   0.000e+00
   7.555e-02   0.000e+00   0.000e+00
   1.024e-01   0.000e+00   0.000e+00
   5.835e-02   0.000e+00   0.000e+00
   5.439e-02   0.000e+00   0.000e+00
   7.555e-02   0.000e+00   0.000e+00
   4.138e-02   0.000e+00   0.000e+00
   3.808e-02   0.000e+00   0.000e+00
   5.439e-02   0.000e+00   0.000e+00
   2.857e-02   0.000e+00   0.000e+00
   2.589e-02   0.000e+00   0.000e+00
   3.808e-02   0.000e+00   0.000e+00
   1.924e-02   0.000e+00   0.000e+00
   1.714e-02   0.000e+00   0.000e+00
   2.589e-02   0.000e+00   0.000e+00
   1.278e-02   0.000e+00   0.000e+00
   1.123e-02   0.000e+00   0.000e+00
   1.714e-02   0.000e+00   0.000e+00
   8.654e-03   0.000e+00   0.000e+00
   7.648e-03   0.000e+00   0.000e+00
   1.123e-02   0.000e+00   0.000e+00
   6.392e-03   0.000e+00   0.000e+00
   5.964e-03   0.000e+00   0.000e+00
   7.648e-03   0.000e+00   0.000e+00
   5.548e-03   0.000e+00   0.000e+00
   5.833e-03   0.000e+00   0.000e+00
   5.964e-03   0.000e+00   0.000e+00
   1.307e-01   0.000e+00   0.000e+00
   1.167e-01   0.000e+00   0.000e+00
   1.385e-01   0.000e+00   0.000e+00
   1.355e-01   0.000e+00   0.000e+00
   5.797e-03   0.000e+00   0.000e+00
   5.856e-03   0.000e+00   0.000e+00
   5.807e-03   0.000e+00   0.000e+00
   1.058e-01   0.000e+00   0.000e+00
   1.087e-01   0.000e+00   0.000e+00
   1.220e-01   0.000e+00   0.000e+00
   1.167e-01   0.000e+00   0.000e+00
   6.696e-03   0.000e+00   0.000e+00
   6.204e-03   0.000e+00   0.000e+00
   6.208e-03   0.000e+00   0.000e+00
   1.355e-01   0.000e+00   0.000e+00
   1.220e-01   0.000e+00   0.000e+00
   1.167e-01   0.000e+00   0.000e+00
   6.208e-03   0.000e+00   0.000e+00
   5.807e-03   0.000e+00   0.000e+00
   5.856e-03   0.000e+00   0.000e+00
   6.204e-03   0.000e+00   0.000e+00
   5.833e-03   0.000e+00   0.000e+00
   5.807e-03   0.000e+00   0.000e+00
   6.208e-03   0.000e+00   0.000e+00
   9.236e-02   0.000e+00   0.000e+00
   6.533e-02   0.000e+00   0.000e+00
   1.058e-01   0.000e+00   0.000e+00
   6.485e-02   0.000e+00   0.000e+00
   3.617e-02   0.000e+00   0.000e+00
   6.533e-02   0.000e+00   0.000e+00
   4.877e-02   0.000e+00   0.000e+00
   2.034e-02   0.000e+00   0.000e+00
   3.617e-02   0.000e+00   0.000e+00
   4.381e-02   0.000e+00   0.000e+00
   1.554e-02   0.000e+00   0.000e+00
   2.034e-02   0.000e+00   0.000e+00
   4.928e-02   0.000e+00   0.000e+00
   2.115e-02   0.000e+00   0.000e+00
   1.554e-02   0.000e+00   0.000e+00
   6.492e-02   0.000e+00   0.000e+00
   3.718e-02   0.000e+00   0.000e+00
   2.115e-02   0.000e+00   0.000e+00
   9.128e-02   0.000e+00   0.000e+00
   6.389e-02   0.000e+00   0.000e+00
   3.718e-02   0.000e+00   0.000e+00
   1.284e-01   0.000e+00   0.000e+00
   1.014e-01   0.000e+00   0.000e+00
   6.389e-02   0.000e+00   0.000e+00
   1.760e-01   0.000e+00   0.000e+00
   1.495e-01   0.000e+00   0.000e+00
   1.014e-01   0.000e+00   0.000e+00
   2.246e-01   0.000e+00   0.000e+00
   1.980e-01   0.000e+00   0.000e+00
   1.892e-01   0.000e+00   0.000e+00
   4.443e-03   0.000e+00   0.000e+00
   3.950e-03   0.000e+00   0.000e+00
   4.165e-03   0.000e+00   0.000e+00
   3.466e-03   0.000e+00   0.000e+00
   3.574e-03   0.000e+00   0.000e+00
   3.023e-03   0.000e+00   0.000e+00
   3.950e-03   0.000e+00   0.000e+00
   1.980e-01   0.000e+00   0.000e+00
   1.837e-01   0.000e+00   0.000e+00
   1.892e-01   0.000e+00   0.000e+00
   3.023e-03   0.000e+00   0.000e+00
   3.466e-03   0.000e+00   0.000e+00
   3.169e-03   0.000e+00   0.000e+00
   3.950e-03   0.000e+00   0.000e+00
   1.495e-01   0.000e+00   0.000e+00
   1.892e-01   0.000e+00   0.000e+00
   1.837e-01   0.000e+00   0.000e+00
   1.661e-01   0.000e+00   0.000e+00
   3.169e-03   0.000e+00   0.000e+00
   2.892e-03   0.000e+00   0.000e+00
   3.023e-03   0.000e+00   0.000e+00
   7.043e-03   0.000e+00   0.000e+00
   5.771e-03   0.000e+00   0.000e+00
   3.574e-03   0.000e+00   0.000e+00
   1.147e-02   0.000e+00   0.000e+00
   9.756e-03   0.000e+00   0.000e+00
   5.771e-03   0.000e+00   0.000e+00
   1.819e-02   0.000e+00   0.000e+00
   1.599e-02   0.000e+00   0.000e+00
   9.756e-03   0.000e+00   0.000e+00
   2.775e-02   0.000e+00   0.000e+00
   2.501e-02   0.000e+00   0.000e+00
   1.599e-02   0.000e+00   0.000e+00
   4.076e-02   0.000e+00   0.000e+00
   3.742e-02   0.000e+00   0.000e+00
   2.501e-02   0.000e+00   0.000e+00
   5.790e-02   0.000e+00   0.000e+00
   5.392e-02   0.000e+00   0.000e+00
   3.742e-02   0.000e+00   0.000e+00
   7.992e-02   0.000e+00   0.000e+00
   7.525e-02   0.000e+00   0.000e+00
   5.392e-02   0.000e+00   0.000e+00
   1.076e-01   0.000e+00   0.000e+00
   1.022e-01   0.000e+00   0.000e+00
   7.525e-02   0.000e+00   0.000e+00
   1.419e-01   0.000e+00   0.000e+00
   1.357e-01   0.000e+00   0.000e+00
   1.022e-01   0.000e+00   0.000e+00
   1.024e-01   0.000e+00   0.000e+00
   9.918e-02   0.000e+00   0.000e+00
   1.320e-01   0.000e+00   0.000e+00
   7.555e-02   0.000e+00   0.000e+00
   7.281e-02   0.000e+00   0.000e+00
   9.918e-02   0.000e+00   0.000e+00
   5.439e-02   0.000e+00   0.000e+00
   5.208e-02   0.000e+00   0.000e+00
   7.281e-02   0.000e+00   0.000e+00
   3.808e-02   0.000e+00   0.000e+00
   3.616e-02   0.000e+00   0.000e+00
   5.208e-02   0.000e+00   0.000e+00
   2.589e-02   0.000e+00   0.000e+00
   2.434e-02   0.000e+00   0.000e+00
   3.616e-02   0.000e+00   0.000e+00
   1.714e-02   0.000e+00   0.000e+00
   1.593e-02   0.000e+00   0.000e+00
   2.434e-02   0.000e+00   0.000e+00
   1.123e-02   0.000e+00   0.000e+00
   1.034e-02   0.000e+00   0.000e+00
   1.593e-02   0.000e+00   0.000e+00
   7.648e-03   0.000e+00   0.000e+00
   7.083e-03   0.000e+00   0.000e+00
   1.034e-02   0.000e+00   0.000e+00
   5.964e-03   0.000e+00   0.000e+00
   5.744e-03   0.000e+00   0.000e+00
   7.083e-03   0.000e+00   0.000e+00
   5.833e-03   0.000e+00   0.000e+00
   6.122e-03   0.000e+00   0.000e+00
   5.744e-03   0.000e+00   0.000e+00
   1.058e-01   0.000e+00   0.000e+00
   1.043e-01   0.000e+00   0.000e+00
   1.068e-01   0.000e+00   0.000e+00
   6.926e-03   0.000e+00   0.000e+00
   6.793e-03   0.000e+00   0.000e+00
   7.678e-03   0.000e+00   0.000e+00
   6.693e-03   0.000e+00   0.000e+00
   8.844e-03   0.000e+00   0.000e+00
   7.107e-03   0.000e+00   0.000e+00
   7.678e-03   0.000e+00   0.000e+00
   7.107e-03   0.000e+00   0.000e+00
   6.693e-03   0.000e+00   0.000e+00
   7.678e-03   0.000e+00   0.000e+00
   6.122e-03   0.000e+00   0.000e+00
   6.693e-03   0.000e+00   0.000e+00
   7.107e-03   0.000e+00   0.000e+00
   6.533e-02   0.000e+00   0.000e+00
   5.374e-02   0.000e+00   0.000e+00
   7.609e-02   0.000e+00   0.000e+00
   4.172e-02   0.000e+00   0.000e+00
   6.671e-02   0.000e+00   0.000e+00
   6.967e-02   0.000e+00   0.000e+00
   5.374e-02   0.000e+00   0.000e+00
   1.001e-02   0.000e+00   0.000e+00
   9.734e-03   0.000e+00   0.000e+00
   9.838e-03   0.000e+00   0.000e+00
   6.967e-02   0.000e+00   0.000e+00
   7.480e-02   0.000e+00   0.000e+00
   7.609e-02   0.000e+00   0.000e+00
   5.374e-02   0.000e+00   0.000e+00
   9.838e-03   0.000e+00   0.000e+00
   9.734e-03   0.000e+00   0.000e+00
   9.303e-03   0.000e+00   0.000e+00
   7.480e-02   0.000e+00   0.000e+00
   8.126e-02   0.000e+00   0.000e+00
   7.609e-02   0.000e+00   0.000e+00
   8.844e-03   0.000e+00   0.000e+00
   9.303e-03   0.000e+00   0.000e+00
   8.680e-03   0.000e+00   0.000e+00
   9.838e-03   0.000e+00   0.000e+00
   3.617e-02   0.000e+00   0.000e+00
   1.562e-02   0.000e+00   0.000e+00
   4.172e-02   0.000e+00   0.000e+00
   2.034e-02   0.000e+00   0.000e+00
   2.069e-03   0.000e+00   0.000e+00
   1.562e-02   0.000e+00   0.000e+00
   1.554e-02   0.000e+00   0.000e+00
  -2.132e-03   0.000e+00   0.000e+00
   2.069e-03   0.000e+00   0.000e+00
   2.115e-02   0.000e+00   0.000e+00
   3.596e-03   0.000e+00   0.000e+00
  -2.132e-03   0.000e+00   0.000e+00
   3.718e-02   0.000e+00   0.000e+00
   1.967e-02   0.000e+00   0.000e+00
   3.596e-03   0.000e+00   0.000e+00
   6.389e-02   0.000e+00   0.000e+00
   4.653e-02   0.000e+00   0.000e+00
   1.967e-02   0.000e+00   0.000e+00
   1.014e-01   0.000e+00   0.000e+00
   8.467e-02   0.000e+00   0.000e+00
   4.653e-02   0.000e+00   0.000e+00
   1.495e-01   0.000e+00   0.000e+00
   1.418e-01   0.000e+00   0.000e+00
   1.373e-01   0.000e+00   0.000e+00
   1.148e-01   0.000e+00   0.000e+00
   2.655e-03   0.000e+00   0.000e+00
   2.629e-03   0.000e+00   0.000e+00
   2.631e-03   0.000e+00   0.000e+00
   1.145e-01   0.000e+00   0.000e+00
   1.300e-01   0.000e+00   0.000e+00
   1.082e-01   0.000e+00   0.000e+00
   2.497e-03   0.000e+00   0.000e+00
   2.591e-03   0.000e+00   0.000e+00
   2.595e-03   0.000e+00   0.000e+00
   2.631e-03   0.000e+00   0.000e+00
   1.082e-01   0.000e+00   0.000e+00
   1.148e-01   0.000e+00   0.000e+00
   1.373e-01   0.000e+00   0.000e+00
   1.300e-01   0.000e+00   0.000e+00
   2.629e-03   0.000e+00   0.000e+00
   2.595e-03   0.000e+00   0.000e+00
   2.631e-03   0.000e+00   0.000e+00
   8.467e-02   0.000e+00   0.000e+00
   1.148e-01   0.000e+00   0.000e+00
   1.082e-01   0.000e+00   0.000e+00
   3.574e-03   0.000e+00   0.000e+00
   3.069e-03   0.000e+00   0.000e+00
   2.497e-03   0.000e+00   0.000e+00
   5.771e-03   0.000e+00   0.000e+00
   5.047e-03   0.000e+00   0.000e+00
   3.069e-03   0.000e+00   0.000e+00
   9.756e-03   0.000e+00   0.000e+00
   8.786e-03   0.000e+00   0.000e+00
   5.047e-03   0.000e+00   0.000e+00
   1.599e-02   0.000e+00   0.000e+00
   1.474e-02   0.000e+00   0.000e+00
   8.786e-03   0.000e+00   0.000e+00
   2.501e-02   0.000e+00   0.000e+00
   2.344e-02   0.000e+00   0.000e+00
   1.474e-02   0.000e+00   0.000e+00
   3.742e-02   0.000e+00   0.000e+00
   3.550e-02   0.000e+00   0.000e+00
   2.344e-02   0.000e+00   0.000e+00
   5.392e-02   0.000e+00   0.000e+00
   5.161e-02   0.000e+00   0.000e+00
   3.550e-02   0.000e+00   0.000e+00
   7.525e-02   0.000e+00   0.000e+00
   7.251e-02   0.000e+00   0.000e+00
   5.161e-02   0.000e+00   0.000e+00
   1.022e-01   0.000e+00   0.000e+00
   9.903e-02   0.000e+00   0.000e+00
   7.251e-02   0.000e+00   0.000e+00
   1.357e-01   0.000e+00   0.000e+00
   1.320e-01   0.000e+00   0.000e+00
   9.903e-02   0.000e+00   0.000e+00
   9.918e-02   0.000e+00   0.000e+00
   9.812e-02   0.000e+00   0.000e+00
   1.308e-01   0.000e+00   0.000e+00
   7.281e-02   0.000e+00   0.000e+00
   7.190e-02   0.000e+00   0.000e+00
   9.812e-02   0.000e+00   0.000e+00
   5.208e-02   0.000e+00   0.000e+00
   5.130e-02   0.000e+00   0.000e+00
   7.190e-02   0.000e+00   0.000e+00
   3.616e-02   0.000e+00   0.000e+00
   3.551e-02   0.000e+00   0.000e+00
   5.130e-02   0.000e+00   0.000e+00
   2.434e-02   0.000e+00   0.000e+00
   2.380e-02   0.000e+00   0.000e+00
   3.551e-02   0.000e+00   0.000e+00
   1.593e-02   0.000e+00   0.000e+00
   1.550e-02   0.000e+00   0.000e+00
   2.380e-02   0.000e+00   0.000e+00
   1.034e-02   0.000e+00   0.000e+00
   1.000e-02   0.000e+00   0.000e+00
   1.550e-02   0.000e+00   0.000e+00
   7.083e-03   0.000e+00   0.000e+00
   6.813e-03   0.000e+00   0.000e+00
   1.000e-02   0.000e+00   0.000e+00
   5.744e-03   0.000e+00   0.000e+00
   5.491e-03   0.000e+00   0.000e+00
   6.813e-03   0.000e+00   0.000e+00
   6.122e-03   0.000e+00   0.000e+00
   5.766e-03   0.000e+00   0.000e+00
   5.491e-03   0.000e+00   0.000e+00
   8.844e-03   0.000e+00   0.000e+00
   8.874e-03   0.000e+00   0.000e+00
   7.002e-03   0.000e+00   0.000e+00
   7.566e-02   0.000e+00   0.000e+00
   1.056e-01   0.000e+00   0.000e+00
   8.538e-02   0.000e+00   0.000e+00
   1.013e-01   0.000e+00   0.000e+00
   8.310e-03   0.000e+00   0.000e+00
   6.802e-03   0.000e+00   0.000e+00
   8.874e-03   0.000e+00   0.000e+00
   1.056e-01   0.000e+00   0.000e+00
   1.013e-01   0.000e+00   0.000e+00
   1.072e-01   0.000e+00   0.000e+00
   6.802e-03   0.000e+00   0.000e+00
   6.419e-03   0.000e+00   0.000e+00
   7.002e-03   0.000e+00   0.000e+00
   8.874e-03   0.000e+00   0.000e+00
   1.072e-01   0.000e+00   0.000e+00
   1.194e-01   0.000e+00   0.000e+00
   1.056e-01   0.000e+00   0.000e+00
   5.766e-03   0.000e+00   0.000e+00
   7.002e-03   0.000e+00   0.000e+00
   6.419e-03   0.000e+00   0.000e+00
   5.860e-03   0.000e+00   0.000e+00
   4.172e-02   0.000e+00   0.000e+00
   2.269e-02   0.000e+00   0.000e+00
   7.566e-02   0.000e+00   0.000e+00
   1.562e-02   0.000e+00   0.000e+00
   7.692e-03   0.000e+00   0.000e+00
   2.269e-02   0.000e+00   0.000e+00
   2.069e-03   0.000e+00   0.000e+00
  -4.731e-03   0.000e+00   0.000e+00
   7.692e-03   0.000e+00   0.000e+00
  -2.132e-03   0.000e+00   0.000e+00
  -8.827e-03   0.000e+00   0.000e+00
  -4.731e-03   0.000e+00   0.000e+00
   3.596e-03   0.000e+00   0.000e+00
  -3.369e-03   0.000e+00   0.000e+00
  -8.827e-03   0.000e+00   0.000e+00
   1.967e-02   0.000e+00   0.000e+00
   1.230e-02   0.000e+00   0.000e+00
  -3.369e-03   0.000e+00   0.000e+00
   4.653e-02   0.000e+00   0.000e+00
   3.886e-02   0.000e+00   0.000e+00
   1.230e-02   0.000e+00   0.000e+00
   8.467e-02   0.000e+00   0.000e+00
   7.700e-02   0.000e+00   0.000e+00
   3.886e-02   0.000e+00   0.000e+00
   1.121e-01   0.000e+00   0.000e+00
   1.156e-01   0.000e+00   0.000e+00
   1.036e-01   0.000e+00   0.000e+00
   2.497e-03   0.000e+00   0.000e+00
   2.356e-03   0.000e+00   0.000e+00
   2.492e-03   0.000e+00   0.000e+00
   2.408e-03   0.000e+00   0.000e+00
   1.267e-01   0.000e+00   0.000e+00
   1.006e-01   0.000e+00   0.000e+00
   1.287e-01   0.000e+00   0.000e+00
   1.229e-01   0.000e+00   0.000e+00
   2.314e-03   0.000e+00   0.000e+00
   2.335e-03   0.000e+00   0.000e+00
   2.356e-03   0.000e+00   0.000e+00
   1.006e-01   0.000e+00   0.000e+00
   1.036e-01   0.000e+00   0.000e+00
   1.156e-01   0.000e+00   0.000e+00
   1.229e-01   0.000e+00   0.000e+00
   2.408e-03   0.000e+00   0.000e+00
   2.335e-03   0.000e+00   0.000e+00
   2.356e-03   0.000e+00   0.000e+00
   7.700e-02   0.000e+00   0.000e+00
   1.036e-01   0.000e+00   0.000e+00
   1.006e-01   0.000e+00   0.000e+00
   3.069e-03   0.000e+00   0.000e+00
   2.907e-03   0.000e+00   0.000e+00
   2.473e-03   0.000e+00   0.000e+00
   1.861e-01   0.000e+00   0.000e+00
   1.631e-01   0.000e+00   0.000e+00
   1.553e-01   0.000e+00   0.000e+00
   2.802e-03   0.000e+00   0.000e+00
   2.800e-03   0.000e+00   0.000e+00
   2.457e-03   0.000e+00   0.000e+00
   2.907e-03   0.000e+00   0.000e+00
   1.553e-01   0.000e+00   0.000e+00
   1.631e-01   0.000e+00   0.000e+00
   1.560e-01   0.000e+00   0.000e+00
   2.457e-03   0.000e+00   0.000e+00
   2.387e-03   0.000e+00   0.000e+00
   2.473e-03   0.000e+00   0.000e+00
   2.907e-03   0.000e+00   0.000e+00
   1.267e-01   0.000e+00   0.000e+00
   1.560e-01   0.000e+00   0.000e+00
   1.418e-01   0.000e+00   0.000e+00
   1.553e-01   0.000e+00   0.000e+00
   2.387e-03   0.000e+00   0.000e+00
   2.308e-03   0.000e+00   0.000e+00
   2.473e-03   0.000e+00   0.000e+00
   5.047e-03   0.000e+00   0.000e+00
   4.769e-03   0.000e+00   0.000e+00
   2.802e-03   0.000e+00   0.000e+00
   8.786e-03   0.000e+00   0.000e+00
   8.465e-03   0.000e+00   0.000e+00
   4.769e-03   0.000e+00   0.000e+00
   1.474e-02   0.000e+00   0.000e+00
   1.434e-02   0.000e+00   0.000e+00
   8.465e-03   0.000e+00   0.000e+00
   2.344e-02   0.000e+00   0.000e+00
   2.294e-02   0.000e+00   0.000e+00
   1.434e-02   0.000e+00   0.000e+00
   3.550e-02   0.000e+00   0.000e+00
   3.489e-02   0.000e+00   0.000e+00
   2.294e-02   0.000e+00   0.000e+00
   5.161e-02   0.000e+00   0.000e+00
   5.086e-02   0.000e+00   0.000e+00
   3.489e-02   0.000e+00   0.000e+00
   7.251e-02   0.000e+00   0.000e+00
   7.162e-02   0.000e+00   0.000e+00
   5.086e-02   0.000e+00   0.000e+00
   9.903e-02   0.000e+00   0.000e+00
   9.798e-02   0.000e+00   0.000e+00
   7.162e-02   0.000e+00   0.000e+00
   1.320e-01   0.000e+00   0.000e+00
   1.308e-01   0.000e+00   0.000e+00
   9.798e-02   0.000e+00   0.000e+00
   9.812e-02   0.000e+00   0.000e+00
   9.916e-02   0.000e+00   0.000e+00
   1.320e-01   0.000e+00   0.000e+00
   7.190e-02   0.000e+00   0.000e+00
   7.278e-02   0.000e+00   0.000e+00
   9.916e-02   0.000e+00   0.000e+00
   5.130e-02   0.000e+00   0.000e+00
   5.203e-02   0.000e+00   0.000e+00
   7.278e-02   0.000e+00   0.000e+00
   3.551e-02   0.000e+00   0.000e+00
   3.610e-02   0.000e+00   0.000e+00
   5.203e-02   0.000e+00   0.000e+00
   2.380e-02   0.000e+00   0.000e+00
   2.425e-02   0.000e+00   0.000e+00
   3.610e-02   0.000e+00   0.000e+00
   1.550e-02   0.000e+00   0.000e+00
   1.581e-02   0.000e+00   0.000e+00
   2.425e-02   0.000e+00   0.000e+00
   1.000e-02   0.000e+00   0.000e+00
   1.018e-02   0.000e+00   0.000e+00
   1.581e-02   0.000e+00   0.000e+00
   6.813e-03   0.000e+00   0.000e+00
   6.830e-03   0.000e+00   0.000e+00
   1.018e-02   0.000e+00   0.000e+00
   1.899e-01   0.000e+00   0.000e+00
   1.929e-01   0.000e+00   0.000e+00
   1.900e-01   0.000e+00   0.000e+00
   5.491e-03   0.000e+00   0.000e+00
   5.384e-03   0.000e+00   0.000e+00
   5.408e-03   0.000e+00   0.000e+00
   5.873e-03   0.000e+00   0.000e+00
   1.930e-01   0.000e+00   0.000e+00
   2.262e-01   0.000e+00   0.000e+00
   1.900e-01   0.000e+00   0.000e+00
   2.262e-01   0.000e+00   0.000e+00
   1.929e-01   0.000e+00   0.000e+00
   2.241e-01   0.000e+00   0.000e+00
   1.900e-01   0.000e+00   0.000e+00
   5.408e-03   0.000e+00   0.000e+00
   5.861e-03   0.000e+00   0.000e+00
   5.873e-03   0.000e+00   0.000e+00
   2.241e-01   0.000e+00   0.000e+00
   2.597e-01   0.000e+00   0.000e+00
   2.262e-01   0.000e+00   0.000e+00
   6.830e-03   0.000e+00   0.000e+00
   5.873e-03   0.000e+00   0.000e+00
   5.861e-03   0.000e+00   0.000e+00
   6.761e-03   0.000e+00   0.000e+00
   1.311e-01   0.000e+00   0.000e+00
   1.382e-01   0.000e+00   0.000e+00
   1.307e-01   0.000e+00   0.000e+00
   1.595e-01   0.000e+00   0.000e+00
   5.766e-03   0.000e+00   0.000e+00
   5.688e-03   0.000e+00   0.000e+00
   5.545e-03   0.000e+00   0.000e+00
   1.334e-01   0.000e+00   0.000e+00
   1.622e-01   0.000e+00   0.000e+00
   1.307e-01   0.000e+00   0.000e+00
   1.622e-01   0.000e+00   0.000e+00
   1.595e-01   0.000e+00   0.000e+00
   1.307e-01   0.000e+00   0.000e+00
   1.930e-01   0.000e+00   0.000e+00
   1.595e-01   0.000e+00   0.000e+00
   1.622e-01   0.000e+00   0.000e+00
   7.566e-02   0.000e+00   0.000e+00
   8.090e-02   0.000e+00   0.000e+00
   1.334e-01   0.000e+00   0.000e+00
   2.269e-02   0.000e+00   0.000e+00
   4.038e-02   0.000e+00   0.000e+00
   8.090e-02   0.000e+00   0.000e+00
   7.692e-03   0.000e+00   0.000e+00
   1.505e-02   0.000e+00   0.000e+00
   4.038e-02   0.000e+00   0.000e+00
  -4.731e-03   0.000e+00   0.000e+00
   7.231e-04   0.000e+00   0.000e+00
   1.505e-02   0.000e+00   0.000e+00
  -8.827e-03   0.000e+00   0.000e+00
  -4.209e-03   0.000e+00   0.000e+00
   7.231e-04   0.000e+00   0.000e+00
  -3.369e-03   0.000e+00   0.000e+00
   4.090e-04   0.000e+00   0.000e+00
  -4.209e-03   0.000e+00   0.000e+00
   1.230e-02   0.000e+00   0.000e+00
   1.496e-02   0.000e+00   0.000e+00
   4.090e-04   0.000e+00   0.000e+00
   3.886e-02   0.000e+00   0.000e+00
   4.045e-02   0.000e+00   0.000e+00
   1.496e-02   0.000e+00   0.000e+00
   7.700e-02   0.000e+00   0.000e+00
   7.828e-02   0.000e+00   0.000e+00
   4.045e-02   0.000e+00   0.000e+00
   1.267e-01   0.000e+00   0.000e+00
   1.283e-01   0.000e+00   0.000e+00
   7.828e-02   0.000e+00   0.000e+00
   1.862e-01   0.000e+00   0.000e+00
   1.862e-01   0.000e+00   0.000e+00
   1.861e-01   0.000e+00   0.000e+00
   1.549e-01   0.000e+00   0.000e+00
   2.802e-03   0.000e+00   0.000e+00
   2.802e-03   0.000e+00   0.000e+00
   2.815e-03   0.000e+00   0.000e+00
   1.888e-01   0.000e+00   0.000e+00
   1.573e-01   0.000e+00   0.000e+00
   1.861e-01   0.000e+00   0.000e+00
   1.573e-01   0.000e+00   0.000e+00
   1.549e-01   0.000e+00   0.000e+00
   1.861e-01   0.000e+00   0.000e+00
   1.283e-01   0.000e+00   0.000e+00
   1.549e-01   0.000e+00   0.000e+00
   1.573e-01   0.000e+00   0.000e+00
   2.554e-01   0.000e+00   0.000e+00
   2.358e-01   0.000e+00   0.000e+00
   2.558e-01   0.000e+00   0.000e+00
   2.197e-01   0.000e+00   0.000e+00
   4.769e-03   0.000e+00   0.000e+00
   4.776e-03   0.000e+00   0.000e+00
   4.083e-03   0.000e+00   0.000e+00
   2.589e-01   0.000e+00   0.000e+00
   2.227e-01   0.000e+00   0.000e+00
   2.558e-01   0.000e+00   0.000e+00
   2.227e-01   0.000e+00   0.000e+00
   2.197e-01   0.000e+00   0.000e+00
   2.558e-01   0.000e+00   0.000e+00
   1.888e-01   0.000e+00   0.000e+00
   2.197e-01   0.000e+00   0.000e+00
   2.227e-01   0.000e+00   0.000e+00
   8.465e-03   0.000e+00   0.000e+00
   8.540e-03   0.000e+00   0.000e+00
   6.422e-03   0.000e+00   0.000e+00
   3.387e-01   0.000e+00   0.000e+00
   2.976e-01   0.000e+00   0.000e+00
   3.376e-01   0.000e+00   0.000e+00
   3.167e-01   0.000e+00   0.000e+00
   8.714e-03   0.000e+00   0.000e+00
   7.553e-03   0.000e+00   0.000e+00
   8.540e-03   0.000e+00   0.000e+00
   2.976e-01   0.000e+00   0.000e+00
   3.167e-01   0.000e+00   0.000e+00
   2.947e-01   0.000e+00   0.000e+00
   7.553e-03   0.000e+00   0.000e+00
   6.449e-03   0.000e+00   0.000e+00
   6.422e-03   0.000e+00   0.000e+00
   8.540e-03   0.000e+00   0.000e+00
   2.589e-01   0.000e+00   0.000e+00
   2.947e-01   0.000e+00   0.000e+00
   2.891e-01   0.000e+00   0.000e+00
   2.976e-01   0.000e+00   0.000e+00
   6.449e-03   0.000e+00   0.000e+00
   6.183e-03   0.000e+00   0.000e+00
   6.422e-03   0.000e+00   0.000e+00
   1.434e-02   0.000e+00   0.000e+00
   1.446e-02   0.000e+00   0.000e+00
   1.119e-02   0.000e+00   0.000e+00
   1.479e-02   0.000e+00   0.000e+00
   1.148e-02   0.000e+00   0.000e+00
   1.446e-02   0.000e+00   0.000e+00
   1.148e-02   0.000e+00   0.000e+00
   1.119e-02   0.000e+00   0.000e+00
   1.446e-02   0.000e+00   0.000e+00
   3.387e-01   0.000e+00   0.000e+00
   3.448e-01   0.000e+00   0.000e+00
   3.561e-01   0.000e+00   0.000e+00
   9.127e-03   0.000e+00   0.000e+00
   9.807e-03   0.000e+00   0.000e+00
   1.119e-02   0.000e+00   0.000e+00
   1.148e-02   0.000e+00   0.000e+00
   2.294e-02   0.000e+00   0.000e+00
   2.350e-02   0.000e+00   0.000e+00
   1.479e-02   0.000e+00   0.000e+00
   3.489e-02   0.000e+00   0.000e+00
   3.555e-02   0.000e+00   0.000e+00
   2.350e-02   0.000e+00   0.000e+00
   5.086e-02   0.000e+00   0.000e+00
   5.165e-02   0.000e+00   0.000e+00
   3.555e-02   0.000e+00   0.000e+00
   7.162e-02   0.000e+00   0.000e+00
   7.254e-02   0.000e+00   0.000e+00
   5.165e-02   0.000e+00   0.000e+00
   9.798e-02   0.000e+00   0.000e+00
   9.904e-02   0.000e+00   0.000e+00
   7.254e-02   0.000e+00   0.000e+00
   1.308e-01   0.000e+00   0.000e+00
   1.320e-01   0.000e+00   0.000e+00
   9.904e-02   0.000e+00   0.000e+00
   9.916e-02   0.000e+00   0.000e+00
   1.023e-01   0.000e+00   0.000e+00
   1.357e-01   0.000e+00   0.000e+00
   7.278e-02   0.000e+00   0.000e+00
   7.550e-02   0.000e+00   0.000e+00
   1.023e-01   0.000e+00   0.000e+00
   5.203e-02   0.000e+00   0.000e+00
   5.431e-02   0.000e+00   0.000e+00
   7.550e-02   0.000e+00   0.000e+00
   3.610e-02   0.000e+00   0.000e+00
   3.797e-02   0.000e+00   0.000e+00
   5.431e-02   0.000e+00   0.000e+00
   2.425e-02   0.000e+00   0.000e+00
   2.573e-02   0.000e+00   0.000e+00
   3.797e-02   0.000e+00   0.000e+00
   1.581e-02   0.000e+00   0.000e+00
   1.692e-02   0.000e+00   0.000e+00
   2.573e-02   0.000e+00   0.000e+00
   1.018e-02   0.000e+00   0.000e+00
   1.048e-02   0.000e+00   0.000e+00
   1.305e-02   0.000e+00   0.000e+00
   3.558e-01   0.000e+00   0.000e+00
   3.670e-01   0.000e+00   0.000e+00
   3.528e-01   0.000e+00   0.000e+00
   1.159e-02   0.000e+00   0.000e+00
   1.079e-02   0.000e+00   0.000e+00
   1.361e-02   0.000e+00   0.000e+00
   1.048e-02   0.000e+00   0.000e+00
   1.361e-02   0.000e+00   0.000e+00
   1.305e-02   0.000e+00   0.000e+00
   1.048e-02   0.000e+00   0.000e+00
   1.692e-02   0.000e+00   0.000e+00
   1.305e-02   0.000e+00   0.000e+00
   1.361e-02   0.000e+00   0.000e+00
   2.620e-01   0.000e+00   0.000e+00
   2.675e-01   0.000e+00   0.000e+00
   2.680e-01   0.000e+00   0.000e+00
   3.061e-01   0.000e+00   0.000e+00
   6.830e-03   0.000e+00   0.000e+00
   6.833e-03   0.000e+00   0.000e+00
   7.006e-03   0.000e+00   0.000e+00
   2.769e-01   0.000e+00   0.000e+00
   3.151e-01   0.000e+00   0.000e+00
   2.680e-01   0.000e+00   0.000e+00
   3.151e-01   0.000e+00   0.000e+00
   3.061e-01   0.000e+00   0.000e+00
   2.680e-01   0.000e+00   0.000e+00
   3.558e-01   0.000e+00   0.000e+00
   3.061e-01   0.000e+00   0.000e+00
   3.151e-01   0.000e+00   0.000e+00
   1.930e-01   0.000e+00   0.000e+00
   2.079e-01   0.000e+00   0.000e+00
   2.769e-01   0.000e+00   0.000e+00
   1.334e-01   0.000e+00   0.000e+00
   1.487e-01   0.000e+00   0.000e+00
   2.079e-01   0.000e+00   0.000e+00
   8.090e-02   0.000e+00   0.000e+00
   9.913e-02   0.000e+00   0.000e+00
   1.487e-01   0.000e+00   0.000e+00
   4.038e-02   0.000e+00   0.000e+00
   6.058e-02   0.000e+00   0.000e+00
   9.913e-02   0.000e+00   0.000e+00
   1.505e-02   0.000e+00   0.000e+00
   3.376e-02   0.000e+00   0.000e+00
   6.058e-02   0.000e+00   0.000e+00
   7.231e-04   0.000e+00   0.000e+00
   1.779e-02   0.000e+00   0.000e+00
   3.376e-02   0.000e+00   0.000e+00
  -4.209e-03   0.000e+00   0.000e+00
   1.180e-02   0.000e+00   0.000e+00
   1.779e-02   0.000e+00   0.000e+00
   4.090e-04   0.000e+00   0.000e+00
   1.529e-02   0.000e+00   0.000e+00
   1.180e-02   0.000e+00   0.000e+00
   1.496e-02   0.000e+00   0.000e+00
   2.779e-02   0.000e+00   0.000e+00
   1.529e-02   0.000e+00   0.000e+00
   4.045e-02   0.000e+00   0.000e+00
   5.029e-02   0.000e+00   0.000e+00
   2.779e-02   0.000e+00   0.000e+00
   7.828e-02   0.000e+00   0.000e+00
   8.789e-02   0.000e+00   0.000e+00
   5.029e-02   0.000e+00   0.000e+00
   1.283e-01   0.000e+00   0.000e+00
   1.405e-01   0.000e+00   0.000e+00
   8.789e-02   0.000e+00   0.000e+00
   1.888e-01   0.000e+00   0.000e+00
   2.029e-01   0.000e+00   0.000e+00
   1.405e-01   0.000e+00   0.000e+00
   2.589e-01   0.000e+00   0.000e+00
   2.738e-01   0.000e+00   0.000e+00
   2.029e-01   0.000e+00   0.000e+00
   3.387e-01   0.000e+00   0.000e+00
   3.539e-01   0.000e+00   0.000e+00
   2.738e-01   0.000e+00   0.000e+00
   4.018e-01   0.000e+00   0.000e+00
   4.235e-01   0.000e+00   0.000e+00
   3.886e-01   0.000e+00   0.000e+00
   1.479e-02   0.000e+00   0.000e+00
   1.534e-02   0.000e+00   0.000e+00
   1.286e-02   0.000e+00   0.000e+00
   1.447e-02   0.000e+00   0.000e+00
   4.438e-01   0.000e+00   0.000e+00
   3.976e-01   0.000e+00   0.000e+00
   4.365e-01   0.000e+00   0.000e+00
   4.305e-01   0.000e+00   0.000e+00
   1.549e-02   0.000e+00   0.000e+00
   1.502e-02   0.000e+00   0.000e+00
   1.534e-02   0.000e+00   0.000e+00
   3.976e-01   0.000e+00   0.000e+00
   3.886e-01   0.000e+00   0.000e+00
   4.235e-01   0.000e+00   0.000e+00
   4.305e-01   0.000e+00   0.000e+00
   1.447e-02   0.000e+00   0.000e+00
   1.502e-02   0.000e+00   0.000e+00
   1.534e-02   0.000e+00   0.000e+00
   3.539e-01   0.000e+00   0.000e+00
   3.886e-01   0.000e+00   0.000e+00
   3.976e-01   0.000e+00   0.000e+00
   2.350e-02   0.000e+00   0.000e+00
   2.418e-02   0.000e+00   0.000e+00
   1.938e-02   0.000e+00   0.000e+00
   2.515e-02   0.000e+00   0.000e+00
   2.026e-02   0.000e+00   0.000e+00
   2.418e-02   0.000e+00   0.000e+00
   2.026e-02   0.000e+00   0.000e+00
   1.938e-02   0.000e+00   0.000e+00
   2.418e-02   0.000e+00   0.000e+00
   4.438e-01   0.000e+00   0.000e+00
   4.589e-01   0.000e+00   0.000e+00
   4.794e-01   0.000e+00   0.000e+00
   1.732e-02   0.000e+00   0.000e+00
   1.910e-02   0.000e+00   0.000e+00
   1.938e-02   0.000e+00   0.000e+00
   2.026e-02   0.000e+00   0.000e+00
   3.555e-02   0.000e+00   0.000e+00
   3.753e-02   0.000e+00   0.000e+00
   2.515e-02   0.000e+00   0.000e+00
   5.165e-02   0.000e+00   0.000e+00
   5.400e-02   0.000e+00   0.000e+00
   3.753e-02   0.000e+00   0.000e+00
   7.254e-02   0.000e+00   0.000e+00
   7.530e-02   0.000e+00   0.000e+00
   5.400e-02   0.000e+00   0.000e+00
   9.904e-02   0.000e+00   0.000e+00
   1.022e-01   0.000e+00   0.000e+00
   7.530e-02   0.000e+00   0.000e+00
   1.320e-01   0.000e+00   0.000e+00
   1.357e-01   0.000e+00   0.000e+00
   1.022e-01   0.000e+00   0.000e+00
   1.023e-01   0.000e+00   0.000e+00
   1.078e-01   0.000e+00   0.000e+00
   1.419e-01   0.000e+00   0.000e+00
   7.550e-02   0.000e+00   0.000e+00
   8.014e-02   0.000e+00   0.000e+00
   1.078e-01   0.000e+00   0.000e+00
   5.431e-02   0.000e+00   0.000e+00
   5.823e-02   0.000e+00   0.000e+00
   8.014e-02   0.000e+00   0.000e+00
   3.797e-02   0.000e+00   0.000e+00
   4.121e-02   0.000e+00   0.000e+00
   5.823e-02   0.000e+00   0.000e+00
   2.573e-02   0.000e+00   0.000e+00
   2.834e-02   0.000e+00   0.000e+00
   4.121e-02   0.000e+00   0.000e+00
   1.692e-02   0.000e+00   0.000e+00
   1.893e-02   0.000e+00   0.000e+00
   2.834e-02   0.000e+00   0.000e+00
   3.558e-01   0.000e+00   0.000e+00
   3.674e-01   0.000e+00   0.000e+00
   3.962e-01   0.000e+00   0.000e+00
   4.071e-01   0.000e+00   0.000e+00
   1.338e-02   0.000e+00   0.000e+00
   1.411e-02   0.000e+00   0.000e+00
   1.436e-02   0.000e+00   0.000e+00
   3.817e-01   0.000e+00   0.000e+00
   4.250e-01   0.000e+00   0.000e+00
   3.674e-01   0.000e+00   0.000e+00
   4.250e-01   0.000e+00   0.000e+00
   4.071e-01   0.000e+00   0.000e+00
   4.137e-01   0.000e+00   0.000e+00
   3.674e-01   0.000e+00   0.000e+00
   1.411e-02   0.000e+00   0.000e+00
   1.456e-02   0.000e+00   0.000e+00
   1.436e-02   0.000e+00   0.000e+00
   4.137e-01   0.000e+00   0.000e+00
   4.362e-01   0.000e+00   0.000e+00
   4.250e-01   0.000e+00   0.000e+00
   1.893e-02   0.000e+00   0.000e+00
   1.436e-02   0.000e+00   0.000e+00
   1.456e-02   0.000e+00   0.000e+00
   1.618e-02   0.000e+00   0.000e+00
   2.769e-01   0.000e+00   0.000e+00
   3.028e-01   0.000e+00   0.000e+00
   3.817e-01   0.000e+00   0.000e+00
   2.079e-01   0.000e+00   0.000e+00
   2.340e-01   0.000e+00   0.000e+00
   3.028e-01   0.000e+00   0.000e+00
   1.487e-01   0.000e+00   0.000e+00
   1.755e-01   0.000e+00   0.000e+00
   2.340e-01   0.000e+00   0.000e+00
   9.913e-02   0.000e+00   0.000e+00
   1.272e-01   0.000e+00   0.000e+00
   1.755e-01   0.000e+00   0.000e+00
   6.058e-02   0.000e+00   0.000e+00
   8.959e-02   0.000e+00   0.000e+00
   1.272e-01   0.000e+00   0.000e+00
   3.376e-02   0.000e+00   0.000e+00
   6.264e-02   0.000e+00   0.000e+00
   8.959e-02   0.000e+00   0.000e+00
   1.779e-02   0.000e+00   0.000e+00
   4.590e-02   0.000e+00   0.000e+00
   6.264e-02   0.000e+00   0.000e+00
   1.180e-02   0.000e+00   0.000e+00
   3.921e-02   0.000e+00   0.000e+00
   4.590e-02   0.000e+00   0.000e+00
   1.529e-02   0.000e+00   0.000e+00
   4.212e-02   0.000e+00   0.000e+00
   3.921e-02   0.000e+00   0.000e+00
   2.779e-02   0.000e+00   0.000e+00
   5.290e-02   0.000e+00   0.000e+00
   4.212e-02   0.000e+00   0.000e+00
   5.029e-02   0.000e+00   0.000e+00
   6.466e-02   0.000e+00   0.000e+00
   5.290e-02   0.000e+00   0.000e+00
   8.789e-02   0.000e+00   0.000e+00
   1.020e-01   0.000e+00   0.000e+00
   6.466e-02   0.000e+00   0.000e+00
   1.405e-01   0.000e+00   0.000e+00
   1.654e-01   0.000e+00   0.000e+00
   1.020e-01   0.000e+00   0.000e+00
   2.029e-01   0.000e+00   0.000e+00
   2.294e-01   0.000e+00   0.000e+00
   1.654e-01   0.000e+00   0.000e+00
   2.738e-01   0.000e+00   0.000e+00
   3.003e-01   0.000e+00   0.000e+00
   2.294e-01   0.000e+00   0.000e+00
   3.539e-01   0.000e+00   0.000e+00
   3.802e-01   0.000e+00   0.000e+00
   3.003e-01   0.000e+00   0.000e+00
   4.438e-01   0.000e+00   0.000e+00
   4.700e-01   0.000e+00   0.000e+00
   3.802e-01   0.000e+00   0.000e+00
   5.138e-01   0.000e+00   0.000e+00
   5.238e-01   0.000e+00   0.000e+00
   5.043e-01   0.000e+00   0.000e+00
   2.515e-02   0.000e+00   0.000e+00
   2.641e-02   0.000e+00   0.000e+00
   2.228e-02   0.000e+00   0.000e+00
   2.325e-02   0.000e+00   0.000e+00
   5.555e-01   0.000e+00   0.000e+00
   5.388e-01   0.000e+00   0.000e+00
   5.187e-01   0.000e+00   0.000e+00
   2.799e-02   0.000e+00   0.000e+00
   2.649e-02   0.000e+00   0.000e+00
   2.475e-02   0.000e+00   0.000e+00
   2.641e-02   0.000e+00   0.000e+00
   5.187e-01   0.000e+00   0.000e+00
   5.043e-01   0.000e+00   0.000e+00
   5.238e-01   0.000e+00   0.000e+00
   5.388e-01   0.000e+00   0.000e+00
   2.325e-02   0.000e+00   0.000e+00
   2.475e-02   0.000e+00   0.000e+00
   2.641e-02   0.000e+00   0.000e+00
   4.700e-01   0.000e+00   0.000e+00
   5.043e-01   0.000e+00   0.000e+00
   5.187e-01   0.000e+00   0.000e+00
   3.753e-02   0.000e+00   0.000e+00
   4.092e-02   0.000e+00   0.000e+00
   2.799e-02   0.000e+00   0.000e+00
   5.400e-02   0.000e+00   0.000e+00
   5.801e-02   0.000e+00   0.000e+00
   4.092e-02   0.000e+00   0.000e+00
   7.530e-02   0.000e+00   0.000e+00
   7.999e-02   0.000e+00   0.000e+00
   5.801e-02   0.000e+00   0.000e+00
   1.022e-01   0.000e+00   0.000e+00
   1.077e-01   0.000e+00   0.000e+00
   7.999e-02   0.000e+00   0.000e+00
   1.357e-01   0.000e+00   0.000e+00
   1.419e-01   0.000e+00   0.000e+00
   1.077e-01   0.000e+00   0.000e+00
   1.078e-01   0.000e+00   0.000e+00
   1.156e-01   0.000e+00   0.000e+00
   1.509e-01   0.000e+00   0.000e+00
   8.014e-02   0.000e+00   0.000e+00
   8.689e-02   0.000e+00   0.000e+00
   1.156e-01   0.000e+00   0.000e+00
   5.823e-02   0.000e+00   0.000e+00
   6.398e-02   0.000e+00   0.000e+00
   8.689e-02   0.000e+00   0.000e+00
   4.121e-02   0.000e+00   0.000e+00
   4.602e-02   0.000e+00   0.000e+00
   6.398e-02   0.000e+00   0.000e+00
   2.834e-02   0.000e+00   0.000e+00
   3.227e-02   0.000e+00   0.000e+00
   4.602e-02   0.000e+00   0.000e+00
   1.893e-02   0.000e+00   0.000e+00
   2.203e-02   0.000e+00   0.000e+00
   3.227e-02   0.000e+00   0.000e+00
   3.817e-01   0.000e+00   0.000e+00
   3.986e-01   0.000e+00   0.000e+00
   4.419e-01   0.000e+00   0.000e+00
   4.182e-01   0.000e+00   0.000e+00
   4.493e-01   0.000e+00   0.000e+00
   4.519e-01   0.000e+00   0.000e+00
   3.986e-01   0.000e+00   0.000e+00
   1.704e-02   0.000e+00   0.000e+00
   1.726e-02   0.000e+00   0.000e+00
   1.803e-02   0.000e+00   0.000e+00
   4.519e-01   0.000e+00   0.000e+00
   4.519e-01   0.000e+00   0.000e+00
   4.419e-01   0.000e+00   0.000e+00
   3.986e-01   0.000e+00   0.000e+00
   1.803e-02   0.000e+00   0.000e+00
   1.726e-02   0.000e+00   0.000e+00
   1.728e-02   0.000e+00   0.000e+00
   4.519e-01   0.000e+00   0.000e+00
   4.530e-01   0.000e+00   0.000e+00
   4.419e-01   0.000e+00   0.000e+00
   2.203e-02   0.000e+00   0.000e+00
   1.728e-02   0.000e+00   0.000e+00
   1.739e-02   0.000e+00   0.000e+00
   1.803e-02   0.000e+00   0.000e+00
   3.028e-01   0.000e+00   0.000e+00
   3.394e-01   0.000e+00   0.000e+00
   4.182e-01   0.000e+00   0.000e+00
   2.340e-01   0.000e+00   0.000e+00
   2.710e-01   0.000e+00   0.000e+00
   3.394e-01   0.000e+00   0.000e+00
   1.755e-01   0.000e+00   0.000e+00
   2.129e-01   0.000e+00   0.000e+00
   2.710e-01   0.000e+00   0.000e+00
   1.272e-01   0.000e+00   0.000e+00
   1.654e-01   0.000e+00   0.000e+00
   2.129e-01   0.000e+00   0.000e+00
   8.959e-02   0.000e+00   0.000e+00
   1.287e-01   0.000e+00   0.000e+00
   1.654e-01   0.000e+00   0.000e+00
   6.264e-02   0.000e+00   0.000e+00
   8.119e-02   0.000e+00   0.000e+00
   9.326e-02   0.000e+00   0.000e+00
   1.141e-01   0.000e+00   0.000e+00
   9.883e-02   0.000e+00   0.000e+00
   1.144e-01   0.000e+00   0.000e+00
   8.119e-02   0.000e+00   0.000e+00
   3.291e-03   0.000e+00   0.000e+00
   3.180e-03   0.000e+00   0.000e+00
   3.344e-03   0.000e+00   0.000e+00
   1.144e-01   0.000e+00   0.000e+00
   9.326e-02   0.000e+00   0.000e+00
   8.119e-02   0.000e+00   0.000e+00
   1.287e-01   0.000e+00   0.000e+00
   9.326e-02   0.000e+00   0.000e+00
   1.144e-01   0.000e+00   0.000e+00
   4.590e-02   0.000e+00   0.000e+00
   6.398e-02   0.000e+00   0.000e+00
   7.132e-02   0.000e+00   0.000e+00
   8.466e-02   0.000e+00   0.000e+00
   9.230e-02   0.000e+00   0.000e+00
   6.398e-02   0.000e+00   0.000e+00
   9.230e-02   0.000e+00   0.000e+00
   7.132e-02   0.000e+00   0.000e+00
   6.398e-02   0.000e+00   0.000e+00
   9.829e-02   0.000e+00   0.000e+00
   9.972e-02   0.000e+00   0.000e+00
   7.132e-02   0.000e+00   0.000e+00
   9.230e-02   0.000e+00   0.000e+00
   3.291e-03   0.000e+00   0.000e+00
   3.370e-03   0.000e+00   0.000e+00
   3.321e-03   0.000e+00   0.000e+00
   3.921e-02   0.000e+00   0.000e+00
   7.784e-02   0.000e+00   0.000e+00
   8.466e-02   0.000e+00   0.000e+00
   4.212e-02   0.000e+00   0.000e+00
   8.146e-02   0.000e+00   0.000e+00
   7.784e-02   0.000e+00   0.000e+00
   5.290e-02   0.000e+00   0.000e+00
   9.511e-02   0.000e+00   0.000e+00
   8.146e-02   0.000e+00   0.000e+00
   6.466e-02   0.000e+00   0.000e+00
   1.178e-01   0.000e+00   0.000e+00
   9.511e-02   0.000e+00   0.000e+00
   1.020e-01   0.000e+00   0.000e+00
   1.445e-01   0.000e+00   0.000e+00
   1.178e-01   0.000e+00   0.000e+00
   1.654e-01   0.000e+00   0.000e+00
   2.105e-01   0.000e+00   0.000e+00
   1.445e-01   0.000e+00   0.000e+00
   2.294e-01   0.000e+00   0.000e+00
   2.692e-01   0.000e+00   0.000e+00
   2.105e-01   0.000e+00   0.000e+00
   3.003e-01   0.000e+00   0.000e+00
   3.384e-01   0.000e+00   0.000e+00
   2.692e-01   0.000e+00   0.000e+00
   3.802e-01   0.000e+00   0.000e+00
   4.176e-01   0.000e+00   0.000e+00
   3.384e-01   0.000e+00   0.000e+00
   4.700e-01   0.000e+00   0.000e+00
   5.070e-01   0.000e+00   0.000e+00
   4.176e-01   0.000e+00   0.000e+00
   5.596e-01   0.000e+00   0.000e+00
   5.714e-01   0.000e+00   0.000e+00
   5.358e-01   0.000e+00   0.000e+00
   2.799e-02   0.000e+00   0.000e+00
   2.988e-02   0.000e+00   0.000e+00
   2.693e-02   0.000e+00   0.000e+00
   2.821e-02   0.000e+00   0.000e+00
   5.659e-01   0.000e+00   0.000e+00
   5.665e-01   0.000e+00   0.000e+00
   5.556e-01   0.000e+00   0.000e+00
   3.212e-02   0.000e+00   0.000e+00
   2.769e-02   0.000e+00   0.000e+00
   2.773e-02   0.000e+00   0.000e+00
   2.988e-02   0.000e+00   0.000e+00
   5.556e-01   0.000e+00   0.000e+00
   5.358e-01   0.000e+00   0.000e+00
   5.714e-01   0.000e+00   0.000e+00
   5.665e-01   0.000e+00   0.000e+00
   2.821e-02   0.000e+00   0.000e+00
   2.773e-02   0.000e+00   0.000e+00
   2.988e-02   0.000e+00   0.000e+00
   5.070e-01   0.000e+00   0.000e+00
   5.358e-01   0.000e+00   0.000e+00
   5.556e-01   0.000e+00   0.000e+00
   4.092e-02   0.000e+00   0.000e+00
   4.586e-02   0.000e+00   0.000e+00
   3.212e-02   0.000e+00   0.000e+00
   5.801e-02   0.000e+00   0.000e+00
   6.384e-02   0.000e+00   0.000e+00
   4.586e-02   0.000e+00   0.000e+00
   7.999e-02   0.000e+00   0.000e+00
   8.679e-02   0.000e+00   0.000e+00
   6.384e-02   0.000e+00   0.000e+00
   1.077e-01   0.000e+00   0.000e+00
   1.155e-01   0.000e+00   0.000e+00
   8.679e-02   0.000e+00   0.000e+00
   1.419e-01   0.000e+00   0.000e+00
   1.509e-01   0.000e+00   0.000e+00
   1.155e-01   0.000e+00   0.000e+00
   1.156e-01   0.000e+00   0.000e+00
   1.260e-01   0.000e+00   0.000e+00
   1.628e-01   0.000e+00   0.000e+00
   8.689e-02   0.000e+00   0.000e+00
   9.597e-02   0.000e+00   0.000e+00
   1.260e-01   0.000e+00   0.000e+00
   6.398e-02   0.000e+00   0.000e+00
   7.179e-02   0.000e+00   0.000e+00
   9.597e-02   0.000e+00   0.000e+00
   4.602e-02   0.000e+00   0.000e+00
   5.264e-02   0.000e+00   0.000e+00
   7.179e-02   0.000e+00   0.000e+00
   3.227e-02   0.000e+00   0.000e+00
   3.779e-02   0.000e+00   0.000e+00
   5.264e-02   0.000e+00   0.000e+00
   2.203e-02   0.000e+00   0.000e+00
   2.652e-02   0.000e+00   0.000e+00
   3.779e-02   0.000e+00   0.000e+00
   4.182e-01   0.000e+00   0.000e+00
   4.325e-01   0.000e+00   0.000e+00
   4.425e-01   0.000e+00   0.000e+00
   1.567e-02   0.000e+00   0.000e+00
   1.646e-02   0.000e+00   0.000e+00
   1.626e-02   0.000e+00   0.000e+00
   1.984e-02   0.000e+00   0.000e+00
   1.820e-02   0.000e+00   0.000e+00
   2.203e-02   0.000e+00   0.000e+00
   1.626e-02   0.000e+00   0.000e+00
   2.203e-02   0.000e+00   0.000e+00
   1.984e-02   0.000e+00   0.000e+00
   1.626e-02   0.000e+00   0.000e+00
   2.652e-02   0.000e+00   0.000e+00
   1.984e-02   0.000e+00   0.000e+00
   2.203e-02   0.000e+00   0.000e+00
   3.394e-01   0.000e+00   0.000e+00
   3.618e-01   0.000e+00   0.000e+00
   3.998e-01   0.000e+00   0.000e+00
   3.718e-01   0.000e+00   0.000e+00
   3.824e-01   0.000e+00   0.000e+00
   3.618e-01   0.000e+00   0.000e+00
   1.227e-02   0.000e+00   0.000e+00
   1.497e-02   0.000e+00   0.000e+00
   1.134e-02   0.000e+00   0.000e+00
   1.203e-02   0.000e+00   0.000e+00
   3.824e-01   0.000e+00   0.000e+00
   4.034e-01   0.000e+00   0.000e+00
   3.998e-01   0.000e+00   0.000e+00
   3.618e-01   0.000e+00   0.000e+00
   1.497e-02   0.000e+00   0.000e+00
   1.203e-02   0.000e+00   0.000e+00
   1.347e-02   0.000e+00   0.000e+00
   4.034e-01   0.000e+00   0.000e+00
   4.068e-01   0.000e+00   0.000e+00
   3.998e-01   0.000e+00   0.000e+00
   1.820e-02   0.000e+00   0.000e+00
   1.347e-02   0.000e+00   0.000e+00
   1.372e-02   0.000e+00   0.000e+00
   1.497e-02   0.000e+00   0.000e+00
   2.710e-01   0.000e+00   0.000e+00
   2.934e-01   0.000e+00   0.000e+00
   3.263e-01   0.000e+00   0.000e+00
   3.072e-01   0.000e+00   0.000e+00
   3.247e-01   0.000e+00   0.000e+00
   2.934e-01   0.000e+00   0.000e+00
   8.216e-03   0.000e+00   0.000e+00
   1.003e-02   0.000e+00   0.000e+00
   7.685e-03   0.000e+00   0.000e+00
   8.570e-03   0.000e+00   0.000e+00
   3.247e-01   0.000e+00   0.000e+00
   3.395e-01   0.000e+00   0.000e+00
   3.263e-01   0.000e+00   0.000e+00
   2.934e-01   0.000e+00   0.000e+00
   1.003e-02   0.000e+00   0.000e+00
   8.570e-03   0.000e+00   0.000e+00
   9.382e-03   0.000e+00   0.000e+00
   3.395e-01   0.000e+00   0.000e+00
   3.549e-01   0.000e+00   0.000e+00
   3.263e-01   0.000e+00   0.000e+00
   1.227e-02   0.000e+00   0.000e+00
   9.382e-03   0.000e+00   0.000e+00
   1.029e-02   0.000e+00   0.000e+00
   1.003e-02   0.000e+00   0.000e+00
   2.129e-01   0.000e+00   0.000e+00
   2.356e-01   0.000e+00   0.000e+00
   2.632e-01   0.000e+00   0.000e+00
   2.446e-01   0.000e+00   0.000e+00
   2.574e-01   0.000e+00   0.000e+00
   2.356e-01   0.000e+00   0.000e+00
   5.623e-03   0.000e+00   0.000e+00
   6.758e-03   0.000e+00   0.000e+00
   5.095e-03   0.000e+00   0.000e+00
   5.536e-03   0.000e+00   0.000e+00
   2.574e-01   0.000e+00   0.000e+00
   2.755e-01   0.000e+00   0.000e+00
   2.632e-01   0.000e+00   0.000e+00
   2.356e-01   0.000e+00   0.000e+00
   6.758e-03   0.000e+00   0.000e+00
   5.536e-03   0.000e+00   0.000e+00
   6.243e-03   0.000e+00   0.000e+00
   2.755e-01   0.000e+00   0.000e+00
   2.921e-01   0.000e+00   0.000e+00
   2.632e-01   0.000e+00   0.000e+00
   8.216e-03   0.000e+00   0.000e+00
   6.243e-03   0.000e+00   0.000e+00
   6.967e-03   0.000e+00   0.000e+00
   6.758e-03   0.000e+00   0.000e+00
   1.654e-01   0.000e+00   0.000e+00
   1.867e-01   0.000e+00   0.000e+00
   1.941e-01   0.000e+00   0.000e+00
   2.106e-01   0.000e+00   0.000e+00
   3.597e-03   0.000e+00   0.000e+00
   3.731e-03   0.000e+00   0.000e+00
   3.622e-03   0.000e+00   0.000e+00
   4.116e-03   0.000e+00   0.000e+00
   4.754e-03   0.000e+00   0.000e+00
   3.622e-03   0.000e+00   0.000e+00
   1.941e-01   0.000e+00   0.000e+00
   2.150e-01   0.000e+00   0.000e+00
   2.106e-01   0.000e+00   0.000e+00
   4.754e-03   0.000e+00   0.000e+00
   3.731e-03   0.000e+00   0.000e+00
   4.207e-03   0.000e+00   0.000e+00
   3.622e-03   0.000e+00   0.000e+00
   2.150e-01   0.000e+00   0.000e+00
   2.212e-01   0.000e+00   0.000e+00
   2.106e-01   0.000e+00   0.000e+00
   5.623e-03   0.000e+00   0.000e+00
   4.207e-03   0.000e+00   0.000e+00
   4.376e-03   0.000e+00   0.000e+00
   4.754e-03   0.000e+00   0.000e+00
   1.287e-01   0.000e+00   0.000e+00
   1.359e-01   0.000e+00   0.000e+00
   1.470e-01   0.000e+00   0.000e+00
   3.112e-03   0.000e+00   0.000e+00
   3.137e-03   0.000e+00   0.000e+00
   3.137e-03   0.000e+00   0.000e+00
   3.307e-03   0.000e+00   0.000e+00
   3.366e-03   0.000e+00   0.000e+00
   3.664e-03   0.000e+00   0.000e+00
   3.137e-03   0.000e+00   0.000e+00
   3.664e-03   0.000e+00   0.000e+00
   3.307e-03   0.000e+00   0.000e+00
   3.137e-03   0.000e+00   0.000e+00
   4.116e-03   0.000e+00   0.000e+00
   3.307e-03   0.000e+00   0.000e+00
   3.664e-03   0.000e+00   0.000e+00
   3.291e-03   0.000e+00   0.000e+00
   3.086e-03   0.000e+00   0.000e+00
   3.366e-03   0.000e+00   0.000e+00
   8.466e-02   0.000e+00   0.000e+00
   1.078e-01   0.000e+00   0.000e+00
   1.153e-01   0.000e+00   0.000e+00
   1.333e-01   0.000e+00   0.000e+00
   1.406e-01   0.000e+00   0.000e+00
   1.078e-01   0.000e+00   0.000e+00
   1.406e-01   0.000e+00   0.000e+00
   1.153e-01   0.000e+00   0.000e+00
   1.078e-01   0.000e+00   0.000e+00
   1.247e-01   0.000e+00   0.000e+00
   1.430e-01   0.000e+00   0.000e+00
   1.153e-01   0.000e+00   0.000e+00
   1.406e-01   0.000e+00   0.000e+00
   3.086e-03   0.000e+00   0.000e+00
   3.058e-03   0.000e+00   0.000e+00
   3.052e-03   0.000e+00   0.000e+00
   7.784e-02   0.000e+00   0.000e+00
   1.270e-01   0.000e+00   0.000e+00
   1.333e-01   0.000e+00   0.000e+00
   8.146e-02   0.000e+00   0.000e+00
   1.318e-01   0.000e+00   0.000e+00
   1.270e-01   0.000e+00   0.000e+00
   9.511e-02   0.000e+00   0.000e+00
   1.484e-01   0.000e+00   0.000e+00
   1.318e-01   0.000e+00   0.000e+00
   1.178e-01   0.000e+00   0.000e+00
   1.239e-01   0.000e+00   0.000e+00
   1.514e-01   0.000e+00   0.000e+00
   1.358e-01   0.000e+00   0.000e+00
   5.035e-03   0.000e+00   0.000e+00
   5.611e-03   0.000e+00   0.000e+00
   5.656e-03   0.000e+00   0.000e+00
   1.742e-01   0.000e+00   0.000e+00
   1.585e-01   0.000e+00   0.000e+00
   1.616e-01   0.000e+00   0.000e+00
   7.230e-03   0.000e+00   0.000e+00
   7.263e-03   0.000e+00   0.000e+00
   5.932e-03   0.000e+00   0.000e+00
   5.656e-03   0.000e+00   0.000e+00
   1.616e-01   0.000e+00   0.000e+00
   1.358e-01   0.000e+00   0.000e+00
   1.514e-01   0.000e+00   0.000e+00
   1.585e-01   0.000e+00   0.000e+00
   5.611e-03   0.000e+00   0.000e+00
   5.932e-03   0.000e+00   0.000e+00
   5.656e-03   0.000e+00   0.000e+00
   1.484e-01   0.000e+00   0.000e+00
   1.358e-01   0.000e+00   0.000e+00
   1.616e-01   0.000e+00   0.000e+00
   1.445e-01   0.000e+00   0.000e+00
   1.609e-01   0.000e+00   0.000e+00
   1.624e-01   0.000e+00   0.000e+00
   8.053e-03   0.000e+00   0.000e+00
   8.647e-03   0.000e+00   0.000e+00
   6.240e-03   0.000e+00   0.000e+00
   8.232e-03   0.000e+00   0.000e+00
   6.856e-03   0.000e+00   0.000e+00
   7.193e-03   0.000e+00   0.000e+00
   6.240e-03   0.000e+00   0.000e+00
   7.193e-03   0.000e+00   0.000e+00
   8.232e-03   0.000e+00   0.000e+00
   6.240e-03   0.000e+00   0.000e+00
   7.230e-03   0.000e+00   0.000e+00
   8.232e-03   0.000e+00   0.000e+00
   7.193e-03   0.000e+00   0.000e+00
   2.105e-01   0.000e+00   0.000e+00
   2.314e-01   0.000e+00   0.000e+00
   2.087e-01   0.000e+00   0.000e+00
   5.394e-03   0.000e+00   0.000e+00
   5.242e-03   0.000e+00   0.000e+00
   5.625e-03   0.000e+00   0.000e+00
   5.700e-03   0.000e+00   0.000e+00
   6.822e-03   0.000e+00   0.000e+00
   6.541e-03   0.000e+00   0.000e+00
   5.625e-03   0.000e+00   0.000e+00
   6.541e-03   0.000e+00   0.000e+00
   5.700e-03   0.000e+00   0.000e+00
   5.625e-03   0.000e+00   0.000e+00
   6.856e-03   0.000e+00   0.000e+00
   5.700e-03   0.000e+00   0.000e+00
   6.541e-03   0.000e+00   0.000e+00
   2.692e-01   0.000e+00   0.000e+00
   2.935e-01   0.000e+00   0.000e+00
   2.639e-01   0.000e+00   0.000e+00
   3.009e-01   0.000e+00   0.000e+00
   2.923e-01   0.000e+00   0.000e+00
   2.935e-01   0.000e+00   0.000e+00
   8.830e-03   0.000e+00   0.000e+00
   7.607e-03   0.000e+00   0.000e+00
   7.889e-03   0.000e+00   0.000e+00
   7.514e-03   0.000e+00   0.000e+00
   2.923e-01   0.000e+00   0.000e+00
   2.657e-01   0.000e+00   0.000e+00
   2.639e-01   0.000e+00   0.000e+00
   2.935e-01   0.000e+00   0.000e+00
   7.607e-03   0.000e+00   0.000e+00
   7.514e-03   0.000e+00   0.000e+00
   6.488e-03   0.000e+00   0.000e+00
   2.657e-01   0.000e+00   0.000e+00
   2.638e-01   0.000e+00   0.000e+00
   2.639e-01   0.000e+00   0.000e+00
   6.822e-03   0.000e+00   0.000e+00
   6.488e-03   0.000e+00   0.000e+00
   6.423e-03   0.000e+00   0.000e+00
   7.607e-03   0.000e+00   0.000e+00
   3.384e-01   0.000e+00   0.000e+00
   3.616e-01   0.000e+00   0.000e+00
   3.262e-01   0.000e+00   0.000e+00
   3.753e-01   0.000e+00   0.000e+00
   3.562e-01   0.000e+00   0.000e+00
   3.616e-01   0.000e+00   0.000e+00
   1.261e-02   0.000e+00   0.000e+00
   1.050e-02   0.000e+00   0.000e+00
   1.183e-02   0.000e+00   0.000e+00
   1.069e-02   0.000e+00   0.000e+00
   3.562e-01   0.000e+00   0.000e+00
   3.376e-01   0.000e+00   0.000e+00
   3.262e-01   0.000e+00   0.000e+00
   3.616e-01   0.000e+00   0.000e+00
   1.050e-02   0.000e+00   0.000e+00
   1.069e-02   0.000e+00   0.000e+00
   9.662e-03   0.000e+00   0.000e+00
   3.376e-01   0.000e+00   0.000e+00
   3.231e-01   0.000e+00   0.000e+00
   3.262e-01   0.000e+00   0.000e+00
   8.830e-03   0.000e+00   0.000e+00
   9.662e-03   0.000e+00   0.000e+00
   8.922e-03   0.000e+00   0.000e+00
   1.050e-02   0.000e+00   0.000e+00
   4.176e-01   0.000e+00   0.000e+00
   4.403e-01   0.000e+00   0.000e+00
   3.996e-01   0.000e+00   0.000e+00
   4.524e-01   0.000e+00   0.000e+00
   4.317e-01   0.000e+00   0.000e+00
   4.403e-01   0.000e+00   0.000e+00
   1.837e-02   0.000e+00   0.000e+00
   1.522e-02   0.000e+00   0.000e+00
   1.729e-02   0.000e+00   0.000e+00
   1.569e-02   0.000e+00   0.000e+00
   4.317e-01   0.000e+00   0.000e+00
   4.137e-01   0.000e+00   0.000e+00
   3.996e-01   0.000e+00   0.000e+00
   4.403e-01   0.000e+00   0.000e+00
   1.522e-02   0.000e+00   0.000e+00
   1.569e-02   0.000e+00   0.000e+00
   1.438e-02   0.000e+00   0.000e+00
   4.137e-01   0.000e+00   0.000e+00
   3.922e-01   0.000e+00   0.000e+00
   3.996e-01   0.000e+00   0.000e+00
   1.261e-02   0.000e+00   0.000e+00
   1.438e-02   0.000e+00   0.000e+00
   1.291e-02   0.000e+00   0.000e+00
   1.522e-02   0.000e+00   0.000e+00
   5.070e-01   0.000e+00   0.000e+00
   5.279e-01   0.000e+00   0.000e+00
   5.215e-01   0.000e+00   0.000e+00
   4.836e-01   0.000e+00   0.000e+00
   2.392e-02   0.000e+00   0.000e+00
   2.330e-02   0.000e+00   0.000e+00
   2.407e-02   0.000e+00   0.000e+00
   2.658e-02   0.000e+00   0.000e+00
   2.214e-02   0.000e+00   0.000e+00
   2.407e-02   0.000e+00   0.000e+00
   5.215e-01   0.000e+00   0.000e+00
   4.909e-01   0.000e+00   0.000e+00
   4.836e-01   0.000e+00   0.000e+00
   2.214e-02   0.000e+00   0.000e+00
   2.330e-02   0.000e+00   0.000e+00
   2.051e-02   0.000e+00   0.000e+00
   2.407e-02   0.000e+00   0.000e+00
   4.909e-01   0.000e+00   0.000e+00
   4.765e-01   0.000e+00   0.000e+00
   4.836e-01   0.000e+00   0.000e+00
   1.837e-02   0.000e+00   0.000e+00
   2.051e-02   0.000e+00   0.000e+00
   1.927e-02   0.000e+00   0.000e+00
   2.214e-02   0.000e+00   0.000e+00
   3.212e-02   0.000e+00   0.000e+00
   3.777e-02   0.000e+00   0.000e+00
   2.658e-02   0.000e+00   0.000e+00
   4.586e-02   0.000e+00   0.000e+00
   5.259e-02   0.000e+00   0.000e+00
   3.777e-02   0.000e+00   0.000e+00
   6.384e-02   0.000e+00   0.000e+00
   7.172e-02   0.000e+00   0.000e+00
   5.259e-02   0.000e+00   0.000e+00
   8.679e-02   0.000e+00   0.000e+00
   9.592e-02   0.000e+00   0.000e+00
   7.172e-02   0.000e+00   0.000e+00
   1.155e-01   0.000e+00   0.000e+00
   1.260e-01   0.000e+00   0.000e+00
   9.592e-02   0.000e+00   0.000e+00
   1.509e-01   0.000e+00   0.000e+00
   1.628e-01   0.000e+00   0.000e+00
   1.260e-01   0.000e+00   0.000e+00
   1.260e-01   0.000e+00   0.000e+00
   1.394e-01   0.000e+00   0.000e+00
   1.780e-01   0.000e+00   0.000e+00
   9.597e-02   0.000e+00   0.000e+00
   1.077e-01   0.000e+00   0.000e+00
   1.394e-01   0.000e+00   0.000e+00
   7.179e-02   0.000e+00   0.000e+00
   8.196e-02   0.000e+00   0.000e+00
   1.077e-01   0.000e+00   0.000e+00
   5.264e-02   0.000e+00   0.000e+00
   6.138e-02   0.000e+00   0.000e+00
   8.196e-02   0.000e+00   0.000e+00
   3.779e-02   0.000e+00   0.000e+00
   4.520e-02   0.000e+00   0.000e+00
   6.138e-02   0.000e+00   0.000e+00
   2.652e-02   0.000e+00   0.000e+00
   3.271e-02   0.000e+00   0.000e+00
   4.520e-02   0.000e+00   0.000e+00
   1.820e-02   0.000e+00   0.000e+00
   2.329e-02   0.000e+00   0.000e+00
   3.271e-02   0.000e+00   0.000e+00
   1.227e-02   0.000e+00   0.000e+00
   1.637e-02   0.000e+00   0.000e+00
   2.329e-02   0.000e+00   0.000e+00
   8.216e-03   0.000e+00   0.000e+00
   1.145e-02   0.000e+00   0.000e+00
   1.637e-02   0.000e+00   0.000e+00
   5.623e-03   0.000e+00   0.000e+00
   8.100e-03   0.000e+00   0.000e+00
   1.145e-02   0.000e+00   0.000e+00
   4.116e-03   0.000e+00   0.000e+00
   5.934e-03   0.000e+00   0.000e+00
   8.100e-03   0.000e+00   0.000e+00
   3.366e-03   0.000e+00   0.000e+00
   4.635e-03   0.000e+00   0.000e+00
   5.934e-03   0.000e+00   0.000e+00
   3.086e-03   0.000e+00   0.000e+00
   3.939e-03   0.000e+00   0.000e+00
   4.635e-03   0.000e+00   0.000e+00
   1.333e-01   0.000e+00   0.000e+00
   1.613e-01   0.000e+00   0.000e+00
   1.683e-01   0.000e+00   0.000e+00
   1.918e-01   0.000e+00   0.000e+00
   1.987e-01   0.000e+00   0.000e+00
   1.613e-01   0.000e+00   0.000e+00
   1.987e-01   0.000e+00   0.000e+00
   1.683e-01   0.000e+00   0.000e+00
   1.613e-01   0.000e+00   0.000e+00
   1.783e-01   0.000e+00   0.000e+00
   2.008e-01   0.000e+00   0.000e+00
   1.683e-01   0.000e+00   0.000e+00
   1.987e-01   0.000e+00   0.000e+00
   3.939e-03   0.000e+00   0.000e+00
   3.374e-03   0.000e+00   0.000e+00
   3.790e-03   0.000e+00   0.000e+00
   1.270e-01   0.000e+00   0.000e+00
   1.861e-01   0.000e+00   0.000e+00
   1.918e-01   0.000e+00   0.000e+00
   1.318e-01   0.000e+00   0.000e+00
   1.914e-01   0.000e+00   0.000e+00
   1.861e-01   0.000e+00   0.000e+00
   1.484e-01   0.000e+00   0.000e+00
   2.082e-01   0.000e+00   0.000e+00
   1.914e-01   0.000e+00   0.000e+00
   1.818e-01   0.000e+00   0.000e+00
   2.027e-01   0.000e+00   0.000e+00
   1.909e-01   0.000e+00   0.000e+00
   7.230e-03   0.000e+00   0.000e+00
   6.624e-03   0.000e+00   0.000e+00
   6.804e-03   0.000e+00   0.000e+00
   6.474e-03   0.000e+00   0.000e+00
   2.320e-01   0.000e+00   0.000e+00
   2.103e-01   0.000e+00   0.000e+00
   2.211e-01   0.000e+00   0.000e+00
   6.801e-03   0.000e+00   0.000e+00
   6.699e-03   0.000e+00   0.000e+00
   6.457e-03   0.000e+00   0.000e+00
   6.624e-03   0.000e+00   0.000e+00
   2.211e-01   0.000e+00   0.000e+00
   1.909e-01   0.000e+00   0.000e+00
   2.027e-01   0.000e+00   0.000e+00
   2.103e-01   0.000e+00   0.000e+00
   6.474e-03   0.000e+00   0.000e+00
   6.457e-03   0.000e+00   0.000e+00
   6.624e-03   0.000e+00   0.000e+00
   2.082e-01   0.000e+00   0.000e+00
   1.909e-01   0.000e+00   0.000e+00
   2.211e-01   0.000e+00   0.000e+00
   6.856e-03   0.000e+00   0.000e+00
   7.793e-03   0.000e+00   0.000e+00
   6.801e-03   0.000e+00   0.000e+00
   6.822e-03   0.000e+00   0.000e+00
   9.343e-03   0.000e+00   0.000e+00
   7.793e-03   0.000e+00   0.000e+00
   8.830e-03   0.000e+00   0.000e+00
   1.222e-02   0.000e+00   0.000e+00
   9.343e-03   0.000e+00   0.000e+00
   1.261e-02   0.000e+00   0.000e+00
   1.685e-02   0.000e+00   0.000e+00
   1.222e-02   0.000e+00   0.000e+00
   1.837e-02   0.000e+00   0.000e+00
   2.358e-02   0.000e+00   0.000e+00
   1.685e-02   0.000e+00   0.000e+00
   2.658e-02   0.000e+00   0.000e+00
   3.287e-02   0.000e+00   0.000e+00
   2.358e-02   0.000e+00   0.000e+00
   3.777e-02   0.000e+00   0.000e+00
   4.527e-02   0.000e+00   0.000e+00
   3.287e-02   0.000e+00   0.000e+00
   5.259e-02   0.000e+00   0.000e+00
   6.140e-02   0.000e+00   0.000e+00
   4.527e-02   0.000e+00   0.000e+00
   7.172e-02   0.000e+00   0.000e+00
   8.196e-02   0.000e+00   0.000e+00
   6.140e-02   0.000e+00   0.000e+00
   9.592e-02   0.000e+00   0.000e+00
   1.077e-01   0.000e+00   0.000e+00
   8.196e-02   0.000e+00   0.000e+00
   1.260e-01   0.000e+00   0.000e+00
   1.394e-01   0.000e+00   0.000e+00
   1.077e-01   0.000e+00   0.000e+00
   1.628e-01   0.000e+00   0.000e+00
   1.780e-01   0.000e+00   0.000e+00
   1.394e-01   0.000e+00   0.000e+00
   1.394e-01   0.000e+00   0.000e+00
   1.561e-01   0.000e+00   0.000e+00
   1.968e-01   0.000e+00   0.000e+00
   1.077e-01   0.000e+00   0.000e+00
   1.224e-01   0.000e+00   0.000e+00
   1.561e-01   0.000e+00   0.000e+00
   8.196e-02   0.000e+00   0.000e+00
   9.488e-02   0.000e+00   0.000e+00
   1.224e-01   0.000e+00   0.000e+00
   6.138e-02   0.000e+00   0.000e+00
   7.262e-02   0.000e+00   0.000e+00
   9.488e-02   0.000e+00   0.000e+00
   4.520e-02   0.000e+00   0.000e+00
   5.488e-02   0.000e+00   0.000e+00
   7.262e-02   0.000e+00   0.000e+00
   3.271e-02   0.000e+00   0.000e+00
   4.098e-02   0.000e+00   0.000e+00
   5.488e-02   0.000e+00   0.000e+00
   2.329e-02   0.000e+00   0.000e+00
   3.028e-02   0.000e+00   0.000e+00
   4.098e-02   0.000e+00   0.000e+00
   1.637e-02   0.000e+00   0.000e+00
   2.222e-02   0.000e+00   0.000e+00
   3.028e-02   0.000e+00   0.000e+00
   1.145e-02   0.000e+00   0.000e+00
   1.629e-02   0.000e+00   0.000e+00
   2.222e-02   0.000e+00   0.000e+00
   8.100e-03   0.000e+00   0.000e+00
   1.207e-02   0.000e+00   0.000e+00
   1.629e-02   0.000e+00   0.000e+00
   5.934e-03   0.000e+00   0.000e+00
   9.172e-03   0.000e+00   0.000e+00
   1.207e-02   0.000e+00   0.000e+00
   4.635e-03   0.000e+00   0.000e+00
   7.285e-03   0.000e+00   0.000e+00
   9.172e-03   0.000e+00   0.000e+00
   3.939e-03   0.000e+00   0.000e+00
   6.157e-03   0.000e+00   0.000e+00
   7.285e-03   0.000e+00   0.000e+00
   1.918e-01   0.000e+00   0.000e+00
   2.248e-01   0.000e+00   0.000e+00
   2.316e-01   0.000e+00   0.000e+00
   2.604e-01   0.000e+00   0.000e+00
   2.671e-01   0.000e+00   0.000e+00
   2.248e-01   0.000e+00   0.000e+00
   2.671e-01   0.000e+00   0.000e+00
   2.316e-01   0.000e+00   0.000e+00
   2.248e-01   0.000e+00   0.000e+00
   2.390e-01   0.000e+00   0.000e+00
   2.678e-01   0.000e+00   0.000e+00
   2.316e-01   0.000e+00   0.000e+00
   2.671e-01   0.000e+00   0.000e+00
   6.157e-03   0.000e+00   0.000e+00
   4.814e-03   0.000e+00   0.000e+00
   5.847e-03   0.000e+00   0.000e+00
   1.861e-01   0.000e+00   0.000e+00
   2.550e-01   0.000e+00   0.000e+00
   2.604e-01   0.000e+00   0.000e+00
   1.914e-01   0.000e+00   0.000e+00
   2.605e-01   0.000e+00   0.000e+00
   2.550e-01   0.000e+00   0.000e+00
   2.082e-01   0.000e+00   0.000e+00
   2.769e-01   0.000e+00   0.000e+00
   2.605e-01   0.000e+00   0.000e+00
   2.411e-01   0.000e+00   0.000e+00
   2.637e-01   0.000e+00   0.000e+00
   2.539e-01   0.000e+00   0.000e+00
   6.801e-03   0.000e+00   0.000e+00
   7.515e-03   0.000e+00   0.000e+00
   6.810e-03   0.000e+00   0.000e+00
   7.314e-03   0.000e+00   0.000e+00
   2.973e-01   0.000e+00   0.000e+00
   2.760e-01   0.000e+00   0.000e+00
   2.892e-01   0.000e+00   0.000e+00
   8.721e-03   0.000e+00   0.000e+00
   8.405e-03   0.000e+00   0.000e+00
   7.668e-03   0.000e+00   0.000e+00
   7.515e-03   0.000e+00   0.000e+00
   2.892e-01   0.000e+00   0.000e+00
   2.539e-01   0.000e+00   0.000e+00
   2.637e-01   0.000e+00   0.000e+00
   2.760e-01   0.000e+00   0.000e+00
   7.314e-03   0.000e+00   0.000e+00
   7.668e-03   0.000e+00   0.000e+00
   7.515e-03   0.000e+00   0.000e+00
   2.769e-01   0.000e+00   0.000e+00
   2.539e-01   0.000e+00   0.000e+00
   2.892e-01   0.000e+00   0.000e+00
   7.793e-03   0.000e+00   0.000e+00
   1.049e-02   0.000e+00   0.000e+00
   8.721e-03   0.000e+00   0.000e+00
   9.343e-03   0.000e+00   0.000e+00
   1.311e-02   0.000e+00   0.000e+00
   1.049e-02   0.000e+00   0.000e+00
   1.222e-02   0.000e+00   0.000e+00
   1.703e-02   0.000e+00   0.000e+00
   1.311e-02   0.000e+00   0.000e+00
   1.685e-02   0.000e+00   0.000e+00
   2.272e-02   0.000e+00   0.000e+00
   1.703e-02   0.000e+00   0.000e+00
   2.358e-02   0.000e+00   0.000e+00
   3.061e-02   0.000e+00   0.000e+00
   2.272e-02   0.000e+00   0.000e+00
   3.287e-02   0.000e+00   0.000e+00
   4.119e-02   0.000e+00   0.000e+00
   3.061e-02   0.000e+00   0.000e+00
   4.527e-02   0.000e+00   0.000e+00
   5.500e-02   0.000e+00   0.000e+00
   4.119e-02   0.000e+00   0.000e+00
   6.140e-02   0.000e+00   0.000e+00
   7.268e-02   0.000e+00   0.000e+00
   5.500e-02   0.000e+00   0.000e+00
   8.196e-02   0.000e+00   0.000e+00
   9.492e-02   0.000e+00   0.000e+00
   7.268e-02   0.000e+00   0.000e+00
   1.077e-01   0.000e+00   0.000e+00
   1.225e-01   0.000e+00   0.000e+00
   9.492e-02   0.000e+00   0.000e+00
   1.394e-01   0.000e+00   0.000e+00
   1.561e-01   0.000e+00   0.000e+00
   1.225e-01   0.000e+00   0.000e+00
   1.780e-01   0.000e+00   0.000e+00
   1.968e-01   0.000e+00   0.000e+00
   1.561e-01   0.000e+00   0.000e+00
   1.561e-01   0.000e+00   0.000e+00
   1.766e-01   0.000e+00   0.000e+00
   2.196e-01   0.000e+00   0.000e+00
   1.224e-01   0.000e+00   0.000e+00
   1.406e-01   0.000e+00   0.000e+00
   1.766e-01   0.000e+00   0.000e+00
   9.488e-02   0.000e+00   0.000e+00
   1.110e-01   0.000e+00   0.000e+00
   1.406e-01   0.000e+00   0.000e+00
   7.262e-02   0.000e+00   0.000e+00
   8.677e-02   0.000e+00   0.000e+00
   1.110e-01   0.000e+00   0.000e+00
   5.488e-02   0.000e+00   0.000e+00
   6.726e-02   0.000e+00   0.000e+00
   8.677e-02   0.000e+00   0.000e+00
   4.098e-02   0.000e+00   0.000e+00
   5.174e-02   0.000e+00   0.000e+00
   6.726e-02   0.000e+00   0.000e+00
   3.028e-02   0.000e+00   0.000e+00
   3.958e-02   0.000e+00   0.000e+00
   5.174e-02   0.000e+00   0.000e+00
   2.222e-02   0.000e+00   0.000e+00
   3.023e-02   0.000e+00   0.000e+00
   3.958e-02   0.000e+00   0.000e+00
   1.629e-02   0.000e+00   0.000e+00
   2.317e-02   0.000e+00   0.000e+00
   3.023e-02   0.000e+00   0.000e+00
   1.207e-02   0.000e+00   0.000e+00
   1.797e-02   0.000e+00   0.000e+00
   2.317e-02   0.000e+00   0.000e+00
   9.172e-03   0.000e+00   0.000e+00
   1.426e-02   0.000e+00   0.000e+00
   1.797e-02   0.000e+00   0.000e+00
   7.285e-03   0.000e+00   0.000e+00
   1.173e-02   0.000e+00   0.000e+00
   1.426e-02   0.000e+00   0.000e+00
   6.157e-03   0.000e+00   0.000e+00
   1.013e-02   0.000e+00   0.000e+00
   1.173e-02   0.000e+00   0.000e+00
   2.604e-01   0.000e+00   0.000e+00
   2.986e-01   0.000e+00   0.000e+00
   3.024e-01   0.000e+00   0.000e+00
   3.047e-01   0.000e+00   0.000e+00
   7.343e-03   0.000e+00   0.000e+00
   7.451e-03   0.000e+00   0.000e+00
   7.475e-03   0.000e+00   0.000e+00
   3.393e-01   0.000e+00   0.000e+00
   3.437e-01   0.000e+00   0.000e+00
   3.342e-01   0.000e+00   0.000e+00
   2.986e-01   0.000e+00   0.000e+00
   9.523e-03   0.000e+00   0.000e+00
   8.986e-03   0.000e+00   0.000e+00
   9.634e-03   0.000e+00   0.000e+00
   3.047e-01   0.000e+00   0.000e+00
   3.342e-01   0.000e+00   0.000e+00
   2.986e-01   0.000e+00   0.000e+00
   9.634e-03   0.000e+00   0.000e+00
   7.475e-03   0.000e+00   0.000e+00
   7.451e-03   0.000e+00   0.000e+00
   8.986e-03   0.000e+00   0.000e+00
   1.013e-02   0.000e+00   0.000e+00
   7.475e-03   0.000e+00   0.000e+00
   9.634e-03   0.000e+00   0.000e+00
   2.550e-01   0.000e+00   0.000e+00
   3.341e-01   0.000e+00   0.000e+00
   3.393e-01   0.000e+00   0.000e+00
   2.605e-01   0.000e+00   0.000e+00
   3.395e-01   0.000e+00   0.000e+00
   3.341e-01   0.000e+00   0.000e+00
   2.769e-01   0.000e+00   0.000e+00
   3.557e-01   0.000e+00   0.000e+00
   3.395e-01   0.000e+00   0.000e+00
   3.155e-01   0.000e+00   0.000e+00
   3.328e-01   0.000e+00   0.000e+00
   3.272e-01   0.000e+00   0.000e+00
   8.721e-03   0.000e+00   0.000e+00
   1.045e-02   0.000e+00   0.000e+00
   9.154e-03   0.000e+00   0.000e+00
   9.955e-03   0.000e+00   0.000e+00
   3.701e-01   0.000e+00   0.000e+00
   3.614e-01   0.000e+00   0.000e+00
   3.677e-01   0.000e+00   0.000e+00
   1.273e-02   0.000e+00   0.000e+00
   1.195e-02   0.000e+00   0.000e+00
   1.145e-02   0.000e+00   0.000e+00
   1.045e-02   0.000e+00   0.000e+00
   3.677e-01   0.000e+00   0.000e+00
   3.272e-01   0.000e+00   0.000e+00
   3.328e-01   0.000e+00   0.000e+00
   3.614e-01   0.000e+00   0.000e+00
   9.955e-03   0.000e+00   0.000e+00
   1.145e-02   0.000e+00   0.000e+00
   1.045e-02   0.000e+00   0.000e+00
   3.557e-01   0.000e+00   0.000e+00
   3.272e-01   0.000e+00   0.000e+00
   3.677e-01   0.000e+00   0.000e+00
   1.049e-02   0.000e+00   0.000e+00
   1.521e-02   0.000e+00   0.000e+00
   1.273e-02   0.000e+00   0.000e+00
   1.311e-02   0.000e+00   0.000e+00
   1.878e-02   0.000e+00   0.000e+00
   1.521e-02   0.000e+00   0.000e+00
   1.703e-02   0.000e+00   0.000e+00
   2.381e-02   0.000e+00   0.000e+00
   1.878e-02   0.000e+00   0.000e+00
   2.272e-02   0.000e+00   0.000e+00
   3.070e-02   0.000e+00   0.000e+00
   2.381e-02   0.000e+00   0.000e+00
   3.061e-02   0.000e+00   0.000e+00
   3.992e-02   0.000e+00   0.000e+00
   3.070e-02   0.000e+00   0.000e+00
   4.119e-02   0.000e+00   0.000e+00
   5.197e-02   0.000e+00   0.000e+00
   3.992e-02   0.000e+00   0.000e+00
   5.500e-02   0.000e+00   0.000e+00
   6.741e-02   0.000e+00   0.000e+00
   5.197e-02   0.000e+00   0.000e+00
   7.268e-02   0.000e+00   0.000e+00
   8.687e-02   0.000e+00   0.000e+00
   6.741e-02   0.000e+00   0.000e+00
   9.492e-02   0.000e+00   0.000e+00
   1.110e-01   0.000e+00   0.000e+00
   8.687e-02   0.000e+00   0.000e+00
   1.225e-01   0.000e+00   0.000e+00
   1.407e-01   0.000e+00   0.000e+00
   1.110e-01   0.000e+00   0.000e+00
   1.561e-01   0.000e+00   0.000e+00
   1.766e-01   0.000e+00   0.000e+00
   1.407e-01   0.000e+00   0.000e+00
   1.968e-01   0.000e+00   0.000e+00
   2.196e-01   0.000e+00   0.000e+00
   1.766e-01   0.000e+00   0.000e+00
   1.766e-01   0.000e+00   0.000e+00
   2.012e-01   0.000e+00   0.000e+00
   2.470e-01   0.000e+00   0.000e+00
   1.406e-01   0.000e+00   0.000e+00
   1.628e-01   0.000e+00   0.000e+00
   2.012e-01   0.000e+00   0.000e+00
   1.110e-01   0.000e+00   0.000e+00
   1.307e-01   0.000e+00   0.000e+00
   1.628e-01   0.000e+00   0.000e+00
   8.677e-02   0.000e+00   0.000e+00
   1.044e-01   0.000e+00   0.000e+00
   1.307e-01   0.000e+00   0.000e+00
   6.726e-02   0.000e+00   0.000e+00
   8.284e-02   0.000e+00   0.000e+00
   1.044e-01   0.000e+00   0.000e+00
   5.174e-02   0.000e+00   0.000e+00
   6.550e-02   0.000e+00   0.000e+00
   8.284e-02   0.000e+00   0.000e+00
   3.958e-02   0.000e+00   0.000e+00
   5.171e-02   0.000e+00   0.000e+00
   6.550e-02   0.000e+00   0.000e+00
   3.023e-02   0.000e+00   0.000e+00
   4.090e-02   0.000e+00   0.000e+00
   5.171e-02   0.000e+00   0.000e+00
   2.317e-02   0.000e+00   0.000e+00
   3.257e-02   0.000e+00   0.000e+00
   4.090e-02   0.000e+00   0.000e+00
   1.797e-02   0.000e+00   0.000e+00
   2.628e-02   0.000e+00   0.000e+00
   3.257e-02   0.000e+00   0.000e+00
   1.426e-02   0.000e+00   0.000e+00
   2.168e-02   0.000e+00   0.000e+00
   2.628e-02   0.000e+00   0.000e+00
   1.173e-02   0.000e+00   0.000e+00
   1.844e-02   0.000e+00   0.000e+00
   2.168e-02   0.000e+00   0.000e+00
   1.013e-02   0.000e+00   0.000e+00
   1.634e-02   0.000e+00   0.000e+00
   1.844e-02   0.000e+00   0.000e+00
   3.393e-01   0.000e+00   0.000e+00
   3.826e-01   0.000e+00   0.000e+00
   3.657e-01   0.000e+00   0.000e+00
   3.849e-01   0.000e+00   0.000e+00
   1.083e-02   0.000e+00   0.000e+00
   1.207e-02   0.000e+00   0.000e+00
   1.233e-02   0.000e+00   0.000e+00
   4.251e-01   0.000e+00   0.000e+00
   3.969e-01   0.000e+00   0.000e+00
   3.826e-01   0.000e+00   0.000e+00
   1.521e-02   0.000e+00   0.000e+00
   1.565e-02   0.000e+00   0.000e+00
   1.495e-02   0.000e+00   0.000e+00
   1.289e-02   0.000e+00   0.000e+00
   3.849e-01   0.000e+00   0.000e+00
   3.969e-01   0.000e+00   0.000e+00
   3.826e-01   0.000e+00   0.000e+00
   1.565e-02   0.000e+00   0.000e+00
   1.233e-02   0.000e+00   0.000e+00
   1.207e-02   0.000e+00   0.000e+00
   1.289e-02   0.000e+00   0.000e+00
   1.634e-02   0.000e+00   0.000e+00
   1.233e-02   0.000e+00   0.000e+00
   1.565e-02   0.000e+00   0.000e+00
   3.341e-01   0.000e+00   0.000e+00
   3.774e-01   0.000e+00   0.000e+00
   3.787e-01   0.000e+00   0.000e+00
   4.233e-01   0.000e+00   0.000e+00
   4.246e-01   0.000e+00   0.000e+00
   3.774e-01   0.000e+00   0.000e+00
   4.246e-01   0.000e+00   0.000e+00
   3.787e-01   0.000e+00   0.000e+00
   3.774e-01   0.000e+00   0.000e+00
   4.274e-01   0.000e+00   0.000e+00
   4.284e-01   0.000e+00   0.000e+00
   3.787e-01   0.000e+00   0.000e+00
   4.246e-01   0.000e+00   0.000e+00
   1.521e-02   0.000e+00   0.000e+00
   1.515e-02   0.000e+00   0.000e+00
   1.519e-02   0.000e+00   0.000e+00
   3.395e-01   0.000e+00   0.000e+00
   4.288e-01   0.000e+00   0.000e+00
   4.233e-01   0.000e+00   0.000e+00
   3.557e-01   0.000e+00   0.000e+00
   4.447e-01   0.000e+00   0.000e+00
   4.288e-01   0.000e+00   0.000e+00
   1.273e-02   0.000e+00   0.000e+00
   1.561e-02   0.000e+00   0.000e+00
   1.455e-02   0.000e+00   0.000e+00
   1.914e-02   0.000e+00   0.000e+00
   1.794e-02   0.000e+00   0.000e+00
   1.561e-02   0.000e+00   0.000e+00
   1.794e-02   0.000e+00   0.000e+00
   1.455e-02   0.000e+00   0.000e+00
   1.561e-02   0.000e+00   0.000e+00
   4.447e-01   0.000e+00   0.000e+00
   4.186e-01   0.000e+00   0.000e+00
   4.496e-01   0.000e+00   0.000e+00
   1.508e-02   0.000e+00   0.000e+00
   1.736e-02   0.000e+00   0.000e+00
   1.455e-02   0.000e+00   0.000e+00
   1.794e-02   0.000e+00   0.000e+00
   1.521e-02   0.000e+00   0.000e+00
   2.237e-02   0.000e+00   0.000e+00
   1.914e-02   0.000e+00   0.000e+00
   1.878e-02   0.000e+00   0.000e+00
   2.691e-02   0.000e+00   0.000e+00
   2.237e-02   0.000e+00   0.000e+00
   2.381e-02   0.000e+00   0.000e+00
   3.309e-02   0.000e+00   0.000e+00
   2.691e-02   0.000e+00   0.000e+00
   3.070e-02   0.000e+00   0.000e+00
   4.131e-02   0.000e+00   0.000e+00
   3.309e-02   0.000e+00   0.000e+00
   3.992e-02   0.000e+00   0.000e+00
   5.202e-02   0.000e+00   0.000e+00
   4.131e-02   0.000e+00   0.000e+00
   5.197e-02   0.000e+00   0.000e+00
   6.573e-02   0.000e+00   0.000e+00
   5.202e-02   0.000e+00   0.000e+00
   6.741e-02   0.000e+00   0.000e+00
   8.300e-02   0.000e+00   0.000e+00
   6.573e-02   0.000e+00   0.000e+00
   8.687e-02   0.000e+00   0.000e+00
   1.045e-01   0.000e+00   0.000e+00
   8.300e-02   0.000e+00   0.000e+00
   1.110e-01   0.000e+00   0.000e+00
   1.308e-01   0.000e+00   0.000e+00
   1.045e-01   0.000e+00   0.000e+00
   1.407e-01   0.000e+00   0.000e+00
   1.628e-01   0.000e+00   0.000e+00
   1.308e-01   0.000e+00   0.000e+00
   1.766e-01   0.000e+00   0.000e+00
   2.012e-01   0.000e+00   0.000e+00
   1.628e-01   0.000e+00   0.000e+00
   2.196e-01   0.000e+00   0.000e+00
   2.470e-01   0.000e+00   0.000e+00
   2.012e-01   0.000e+00   0.000e+00
   2.012e-01   0.000e+00   0.000e+00
   2.307e-01   0.000e+00   0.000e+00
   2.796e-01   0.000e+00   0.000e+00
   1.628e-01   0.000e+00   0.000e+00
   1.894e-01   0.000e+00   0.000e+00
   2.307e-01   0.000e+00   0.000e+00
   1.307e-01   0.000e+00   0.000e+00
   1.547e-01   0.000e+00   0.000e+00
   1.894e-01   0.000e+00   0.000e+00
   1.044e-01   0.000e+00   0.000e+00
   1.259e-01   0.000e+00   0.000e+00
   1.547e-01   0.000e+00   0.000e+00
   8.284e-02   0.000e+00   0.000e+00
   1.022e-01   0.000e+00   0.000e+00
   1.259e-01   0.000e+00   0.000e+00
   6.550e-02   0.000e+00   0.000e+00
   8.282e-02   0.000e+00   0.000e+00
   1.022e-01   0.000e+00   0.000e+00
   5.171e-02   0.000e+00   0.000e+00
   6.721e-02   0.000e+00   0.000e+00
   8.282e-02   0.000e+00   0.000e+00
   4.090e-02   0.000e+00   0.000e+00
   5.479e-02   0.000e+00   0.000e+00
   6.721e-02   0.000e+00   0.000e+00
   3.257e-02   0.000e+00   0.000e+00
   4.506e-02   0.000e+00   0.000e+00
   5.479e-02   0.000e+00   0.000e+00
   2.628e-02   0.000e+00   0.000e+00
   3.758e-02   0.000e+00   0.000e+00
   4.506e-02   0.000e+00   0.000e+00
   2.168e-02   0.000e+00   0.000e+00
   3.199e-02   0.000e+00   0.000e+00
   3.758e-02   0.000e+00   0.000e+00
   1.844e-02   0.000e+00   0.000e+00
   2.798e-02   0.000e+00   0.000e+00
   3.199e-02   0.000e+00   0.000e+00
   1.634e-02   0.000e+00   0.000e+00
   2.531e-02   0.000e+00   0.000e+00
   2.798e-02   0.000e+00   0.000e+00
   1.521e-02   0.000e+00   0.000e+00
   2.383e-02   0.000e+00   0.000e+00
   2.531e-02   0.000e+00   0.000e+00
   4.233e-01   0.000e+00   0.000e+00
   4.719e-01   0.000e+00   0.000e+00
   4.731e-01   0.000e+00   0.000e+00
   5.230e-01   0.000e+00   0.000e+00
   5.231e-01   0.000e+00   0.000e+00
   5.095e-01   0.000e+00   0.000e+00
   4.719e-01   0.000e+00   0.000e+00
   2.345e-02   0.000e+00   0.000e+00
   2.213e-02   0.000e+00   0.000e+00
   2.350e-02   0.000e+00   0.000e+00
   5.095e-01   0.000e+00   0.000e+00
   4.950e-01   0.000e+00   0.000e+00
   4.731e-01   0.000e+00   0.000e+00
   4.719e-01   0.000e+00   0.000e+00
   2.350e-02   0.000e+00   0.000e+00
   2.213e-02   0.000e+00   0.000e+00
   2.078e-02   0.000e+00   0.000e+00
   4.950e-01   0.000e+00   0.000e+00
   4.842e-01   0.000e+00   0.000e+00
   4.731e-01   0.000e+00   0.000e+00
   2.383e-02   0.000e+00   0.000e+00
   2.078e-02   0.000e+00   0.000e+00
   1.980e-02   0.000e+00   0.000e+00
   2.350e-02   0.000e+00   0.000e+00
   4.288e-01   0.000e+00   0.000e+00
   5.283e-01   0.000e+00   0.000e+00
   5.230e-01   0.000e+00   0.000e+00
   4.447e-01   0.000e+00   0.000e+00
   4.809e-01   0.000e+00   0.000e+00
   4.915e-01   0.000e+00   0.000e+00
   4.839e-01   0.000e+00   0.000e+00
   1.990e-02   0.000e+00   0.000e+00
   2.080e-02   0.000e+00   0.000e+00
   2.096e-02   0.000e+00   0.000e+00
   2.573e-02   0.000e+00   0.000e+00
   2.479e-02   0.000e+00   0.000e+00
   2.096e-02   0.000e+00   0.000e+00
   4.915e-01   0.000e+00   0.000e+00
   5.297e-01   0.000e+00   0.000e+00
   4.839e-01   0.000e+00   0.000e+00
   2.479e-02   0.000e+00   0.000e+00
   2.080e-02   0.000e+00   0.000e+00
   2.428e-02   0.000e+00   0.000e+00
   2.096e-02   0.000e+00   0.000e+00
   5.283e-01   0.000e+00   0.000e+00
   4.839e-01   0.000e+00   0.000e+00
   5.297e-01   0.000e+00   0.000e+00
   5.339e-01   0.000e+00   0.000e+00
   2.428e-02   0.000e+00   0.000e+00
   2.468e-02   0.000e+00   0.000e+00
   2.479e-02   0.000e+00   0.000e+00
   1.914e-02   0.000e+00   0.000e+00
   2.846e-02   0.000e+00   0.000e+00
   2.573e-02   0.000e+00   0.000e+00
   2.237e-02   0.000e+00   0.000e+00
   3.249e-02   0.000e+00   0.000e+00
   2.846e-02   0.000e+00   0.000e+00
   2.691e-02   0.000e+00   0.000e+00
   3.805e-02   0.000e+00   0.000e+00
   3.249e-02   0.000e+00   0.000e+00
   3.309e-02   0.000e+00   0.000e+00
   4.547e-02   0.000e+00   0.000e+00
   3.805e-02   0.000e+00   0.000e+00
   4.131e-02   0.000e+00   0.000e+00
   5.513e-02   0.000e+00   0.000e+00
   4.547e-02   0.000e+00   0.000e+00
   5.202e-02   0.000e+00   0.000e+00
   6.748e-02   0.000e+00   0.000e+00
   5.513e-02   0.000e+00   0.000e+00
   6.573e-02   0.000e+00   0.000e+00
   8.302e-02   0.000e+00   0.000e+00
   6.748e-02   0.000e+00   0.000e+00
   8.300e-02   0.000e+00   0.000e+00
   1.023e-01   0.000e+00   0.000e+00
   8.302e-02   0.000e+00   0.000e+00
   1.045e-01   0.000e+00   0.000e+00
   1.260e-01   0.000e+00   0.000e+00
   1.023e-01   0.000e+00   0.000e+00
   1.308e-01   0.000e+00   0.000e+00
   1.548e-01   0.000e+00   0.000e+00
   1.260e-01   0.000e+00   0.000e+00
   1.628e-01   0.000e+00   0.000e+00
   1.894e-01   0.000e+00   0.000e+00
   1.548e-01   0.000e+00   0.000e+00
   2.012e-01   0.000e+00   0.000e+00
   2.307e-01   0.000e+00   0.000e+00
   1.894e-01   0.000e+00   0.000e+00
   2.470e-01   0.000e+00   0.000e+00
   2.796e-01   0.000e+00   0.000e+00
   2.307e-01   0.000e+00   0.000e+00
   2.307e-01   0.000e+00   0.000e+00
   2.656e-01   0.000e+00   0.000e+00
   3.178e-01   0.000e+00   0.000e+00
   1.894e-01   0.000e+00   0.000e+00
   2.212e-01   0.000e+00   0.000e+00
   2.656e-01   0.000e+00   0.000e+00
   1.547e-01   0.000e+00   0.000e+00
   1.836e-01   0.000e+00   0.000e+00
   2.212e-01   0.000e+00   0.000e+00
   1.259e-01   0.000e+00   0.000e+00
   1.521e-01   0.000e+00   0.000e+00
   1.836e-01   0.000e+00   0.000e+00
   1.022e-01   0.000e+00   0.000e+00
   1.259e-01   0.000e+00   0.000e+00
   1.521e-01   0.000e+00   0.000e+00
   8.282e-02   0.000e+00   0.000e+00
   1.043e-01   0.000e+00   0.000e+00
   1.259e-01   0.000e+00   0.000e+00
   6.721e-02   0.000e+00   0.000e+00
   8.672e-02   0.000e+00   0.000e+00
   1.043e-01   0.000e+00   0.000e+00
   5.479e-02   0.000e+00   0.000e+00
   7.253e-02   0.000e+00   0.000e+00
   8.672e-02   0.000e+00   0.000e+00
   4.506e-02   0.000e+00   0.000e+00
   6.126e-02   0.000e+00   0.000e+00
   7.253e-02   0.000e+00   0.000e+00
   3.758e-02   0.000e+00   0.000e+00
   5.247e-02   0.000e+00   0.000e+00
   6.126e-02   0.000e+00   0.000e+00
   3.199e-02   0.000e+00   0.000e+00
   4.580e-02   0.000e+00   0.000e+00
   5.247e-02   0.000e+00   0.000e+00
   2.798e-02   0.000e+00   0.000e+00
   4.095e-02   0.000e+00   0.000e+00
   4.580e-02   0.000e+00   0.000e+00
   2.531e-02   0.000e+00   0.000e+00
   3.767e-02   0.000e+00   0.000e+00
   4.095e-02   0.000e+00   0.000e+00
   2.383e-02   0.000e+00   0.000e+00
   3.581e-02   0.000e+00   0.000e+00
   3.767e-02   0.000e+00   0.000e+00
   5.230e-01   0.000e+00   0.000e+00
   5.364e-01   0.000e+00   0.000e+00
   5.316e-01   0.000e+00   0.000e+00
   2.476e-02   0.000e+00   0.000e+00
   2.428e-02   0.000e+00   0.000e+00
   2.889e-02   0.000e+00   0.000e+00
   2.898e-02   0.000e+00   0.000e+00
   3.526e-02   0.000e+00   0.000e+00
   3.538e-02   0.000e+00   0.000e+00
   2.889e-02   0.000e+00   0.000e+00
   3.538e-02   0.000e+00   0.000e+00
   2.898e-02   0.000e+00   0.000e+00
   2.889e-02   0.000e+00   0.000e+00
   3.581e-02   0.000e+00   0.000e+00
   2.898e-02   0.000e+00   0.000e+00
   3.538e-02   0.000e+00   0.000e+00
   5.283e-01   0.000e+00   0.000e+00
   5.529e-01   0.000e+00   0.000e+00
   5.531e-01   0.000e+00   0.000e+00
   2.652e-02   0.000e+00   0.000e+00
   2.651e-02   0.000e+00   0.000e+00
   2.957e-02   0.000e+00   0.000e+00
   2.908e-02   0.000e+00   0.000e+00
   3.597e-02   0.000e+00   0.000e+00
   3.546e-02   0.000e+00   0.000e+00
   2.957e-02   0.000e+00   0.000e+00
   3.546e-02   0.000e+00   0.000e+00
   2.908e-02   0.000e+00   0.000e+00
   2.957e-02   0.000e+00   0.000e+00
   3.526e-02   0.000e+00   0.000e+00
   2.908e-02   0.000e+00   0.000e+00
   3.546e-02   0.000e+00   0.000e+00
   2.573e-02   0.000e+00   0.000e+00
   3.794e-02   0.000e+00   0.000e+00
   3.597e-02   0.000e+00   0.000e+00
   2.846e-02   0.000e+00   0.000e+00
   4.128e-02   0.000e+00   0.000e+00
   3.794e-02   0.000e+00   0.000e+00
   3.249e-02   0.000e+00   0.000e+00
   4.616e-02   0.000e+00   0.000e+00
   4.128e-02   0.000e+00   0.000e+00
   3.805e-02   0.000e+00   0.000e+00
   5.282e-02   0.000e+00   0.000e+00
   4.616e-02   0.000e+00   0.000e+00
   4.547e-02   0.000e+00   0.000e+00
   6.157e-02   0.000e+00   0.000e+00
   5.282e-02   0.000e+00   0.000e+00
   5.513e-02   0.000e+00   0.000e+00
   7.280e-02   0.000e+00   0.000e+00
   6.157e-02   0.000e+00   0.000e+00
   6.748e-02   0.000e+00   0.000e+00
   8.694e-02   0.000e+00   0.000e+00
   7.280e-02   0.000e+00   0.000e+00
   8.302e-02   0.000e+00   0.000e+00
   1.045e-01   0.000e+00   0.000e+00
   8.694e-02   0.000e+00   0.000e+00
   1.023e-01   0.000e+00   0.000e+00
   1.260e-01   0.000e+00   0.000e+00
   1.045e-01   0.000e+00   0.000e+00
   1.260e-01   0.000e+00   0.000e+00
   1.522e-01   0.000e+00   0.000e+00
   1.260e-01   0.000e+00   0.000e+00
   1.548e-01   0.000e+00   0.000e+00
   1.837e-01   0.000e+00   0.000e+00
   1.522e-01   0.000e+00   0.000e+00
   1.894e-01   0.000e+00   0.000e+00
   2.212e-01   0.000e+00   0.000e+00
   1.837e-01   0.000e+00   0.000e+00
   2.307e-01   0.000e+00   0.000e+00
   2.656e-01   0.000e+00   0.000e+00
   2.212e-01   0.000e+00   0.000e+00
   2.796e-01   0.000e+00   0.000e+00
   3.178e-01   0.000e+00   0.000e+00
   2.656e-01   0.000e+00   0.000e+00
   2.656e-01   0.000e+00   0.000e+00
   3.066e-01   0.000e+00   0.000e+00
   3.625e-01   0.000e+00   0.000e+00
   2.212e-01   0.000e+00   0.000e+00
   2.588e-01   0.000e+00   0.000e+00
   3.066e-01   0.000e+00   0.000e+00
   1.836e-01   0.000e+00   0.000e+00
   2.180e-01   0.000e+00   0.000e+00
   2.588e-01   0.000e+00   0.000e+00
   1.521e-01   0.000e+00   0.000e+00
   1.836e-01   0.000e+00   0.000e+00
   2.180e-01   0.000e+00   0.000e+00
   1.259e-01   0.000e+00   0.000e+00
   1.547e-01   0.000e+00   0.000e+00
   1.836e-01   0.000e+00   0.000e+00
   1.043e-01   0.000e+00   0.000e+00
   1.307e-01   0.000e+00   0.000e+00
   1.547e-01   0.000e+00   0.000e+00
   8.672e-02   0.000e+00   0.000e+00
   1.109e-01   0.000e+00   0.000e+00
   1.307e-01   0.000e+00   0.000e+00
   7.253e-02   0.000e+00   0.000e+00
   9.482e-02   0.000e+00   0.000e+00
   1.109e-01   0.000e+00   0.000e+00
   6.126e-02   0.000e+00   0.000e+00
   8.187e-02   0.000e+00   0.000e+00
   9.482e-02   0.000e+00   0.000e+00
   5.247e-02   0.000e+00   0.000e+00
   7.166e-02   0.000e+00   0.000e+00
   8.187e-02   0.000e+00   0.000e+00
   4.580e-02   0.000e+00   0.000e+00
   6.382e-02   0.000e+00   0.000e+00
   7.166e-02   0.000e+00   0.000e+00
   4.095e-02   0.000e+00   0.000e+00
   5.805e-02   0.000e+00   0.000e+00
   6.382e-02   0.000e+00   0.000e+00
   3.767e-02   0.000e+00   0.000e+00
   5.411e-02   0.000e+00   0.000e+00
   5.805e-02   0.000e+00   0.000e+00
   3.581e-02   0.000e+00   0.000e+00
   5.184e-02   0.000e+00   0.000e+00
   5.411e-02   0.000e+00   0.000e+00
   3.526e-02   0.000e+00   0.000e+00
   5.112e-02   0.000e+00   0.000e+00
   5.184e-02   0.000e+00   0.000e+00
   3.597e-02   0.000e+00   0.000e+00
   5.193e-02   0.000e+00   0.000e+00
   5.112e-02   0.000e+00   0.000e+00
   3.794e-02   0.000e+00   0.000e+00
   5.428e-02   0.000e+00   0.000e+00
   5.193e-02   0.000e+00   0.000e+00
   4.128e-02   0.000e+00   0.000e+00
   5.826e-02   0.000e+00   0.000e+00
   5.428e-02   0.000e+00   0.000e+00
   4.616e-02   0.000e+00   0.000e+00
   6.406e-02   0.000e+00   0.000e+00
   5.826e-02   0.000e+00   0.000e+00
   5.282e-02   0.000e+00   0.000e+00
   7.190e-02   0.000e+00   0.000e+00
   6.406e-02   0.000e+00   0.000e+00
   6.157e-02   0.000e+00   0.000e+00
   8.209e-02   0.000e+00   0.000e+00
   7.190e-02   0.000e+00   0.000e+00
   7.280e-02   0.000e+00   0.000e+00
   9.501e-02   0.000e+00   0.000e+00
   8.209e-02   0.000e+00   0.000e+00
   8.694e-02   0.000e+00   0.000e+00
   1.111e-01   0.000e+00   0.000e+00
   9.501e-02   0.000e+00   0.000e+00
   1.045e-01   0.000e+00   0.000e+00
   1.308e-01   0.000e+00   0.000e+00
   1.111e-01   0.000e+00   0.000e+00
   1.260e-01   0.000e+00   0.000e+00
   1.548e-01   0.000e+00   0.000e+00
   1.308e-01   0.000e+00   0.000e+00
   1.522e-01   0.000e+00   0.000e+00
   1.837e-01   0.000e+00   0.000e+00
   1.548e-01   0.000e+00   0.000e+00
   1.837e-01   0.000e+00   0.000e+00
   2.181e-01   0.000e+00   0.000e+00
   1.837e-01   0.000e+00   0.000e+00
   2.212e-01   0.000e+00   0.000e+00
   2.588e-01   0.000e+00   0.000e+00
   2.181e-01   0.000e+00   0.000e+00
   2.656e-01   0.000e+00   0.000e+00
   3.066e-01   0.000e+00   0.000e+00
   2.588e-01   0.000e+00   0.000e+00
   3.178e-01   0.000e+00   0.000e+00
   3.625e-01   0.000e+00   0.000e+00
   3.066e-01   0.000e+00   0.000e+00
   3.066e-01   0.000e+00   0.000e+00
   3.545e-01   0.000e+00   0.000e+00
   4.144e-01   0.000e+00   0.000e+00
   2.588e-01   0.000e+00   0.000e+00
   3.029e-01   0.000e+00   0.000e+00
   3.545e-01   0.000e+00   0.000e+00
   2.180e-01   0.000e+00   0.000e+00
   2.588e-01   0.000e+00   0.000e+00
   3.029e-01   0.000e+00   0.000e+00
   1.836e-01   0.000e+00   0.000e+00
   2.212e-01   0.000e+00   0.000e+00
   2.588e-01   0.000e+00   0.000e+00
   1.547e-01   0.000e+00   0.000e+00
   1.894e-01   0.000e+00   0.000e+00
   2.212e-01   0.000e+00   0.000e+00
   1.307e-01   0.000e+00   0.000e+00
   1.627e-01   0.000e+00   0.000e+00
   1.894e-01   0.000e+00   0.000e+00
   1.109e-01   0.000e+00   0.000e+00
   1.406e-01   0.000e+00   0.000e+00
   1.627e-01   0.000e+00   0.000e+00
   9.482e-02   0.000e+00   0.000e+00
   1.224e-01   0.000e+00   0.000e+00
   1.406e-01   0.000e+00   0.000e+00
   8.187e-02   0.000e+00   0.000e+00
   1.076e-01   0.000e+00   0.000e+00
   1.224e-01   0.000e+00   0.000e+00
   7.166e-02   0.000e+00   0.000e+00
   9.589e-02   0.000e+00   0.000e+00
   1.076e-01   0.000e+00   0.000e+00
   6.382e-02   0.000e+00   0.000e+00
   8.678e-02   0.000e+00   0.000e+00
   9.589e-02   0.000e+00   0.000e+00
   5.805e-02   0.000e+00   0.000e+00
   8.002e-02   0.000e+00   0.000e+00
   8.678e-02   0.000e+00   0.000e+00
   5.411e-02   0.000e+00   0.000e+00
   7.537e-02   0.000e+00   0.000e+00
   8.002e-02   0.000e+00   0.000e+00
   5.184e-02   0.000e+00   0.000e+00
   7.266e-02   0.000e+00   0.000e+00
   7.537e-02   0.000e+00   0.000e+00
   5.112e-02   0.000e+00   0.000e+00
   7.179e-02   0.000e+00   0.000e+00
   7.266e-02   0.000e+00   0.000e+00
   5.193e-02   0.000e+00   0.000e+00
   7.272e-02   0.000e+00   0.000e+00
   7.179e-02   0.000e+00   0.000e+00
   5.428e-02   0.000e+00   0.000e+00
   7.547e-02   0.000e+00   0.000e+00
   7.272e-02   0.000e+00   0.000e+00
   5.826e-02   0.000e+00   0.000e+00
   8.015e-02   0.000e+00   0.000e+00
   7.547e-02   0.000e+00   0.000e+00
   6.406e-02   0.000e+00   0.000e+00
   8.693e-02   0.000e+00   0.000e+00
   8.015e-02   0.000e+00   0.000e+00
   7.190e-02   0.000e+00   0.000e+00
   9.604e-02   0.000e+00   0.000e+00
   8.693e-02   0.000e+00   0.000e+00
   8.209e-02   0.000e+00   0.000e+00
   1.078e-01   0.000e+00   0.000e+00
   9.604e-02   0.000e+00   0.000e+00
   9.501e-02   0.000e+00   0.000e+00
   1.225e-01   0.000e+00   0.000e+00
   1.078e-01   0.000e+00   0.000e+00
   1.111e-01   0.000e+00   0.000e+00
   1.407e-01   0.000e+00   0.000e+00
   1.225e-01   0.000e+00   0.000e+00
   1.308e-01   0.000e+00   0.000e+00
   1.628e-01   0.000e+00   0.000e+00
   1.407e-01   0.000e+00   0.000e+00
   1.548e-01   0.000e+00   0.000e+00
   1.894e-01   0.000e+00   0.000e+00
   1.628e-01   0.000e+00   0.000e+00
   1.837e-01   0.000e+00   0.000e+00
   2.212e-01   0.000e+00   0.000e+00
   1.894e-01   0.000e+00   0.000e+00
   2.181e-01   0.000e+00   0.000e+00
   2.588e-01   0.000e+00   0.000e+00
   2.212e-01   0.000e+00   0.000e+00
   2.588e-01   0.000e+00   0.000e+00
   3.030e-01   0.000e+00   0.000e+00
   2.588e-01   0.000e+00   0.000e+00
   3.066e-01   0.000e+00   0.000e+00
   3.545e-01   0.000e+00   0.000e+00
   3.030e-01   0.000e+00   0.000e+00
   3.625e-01   0.000e+00   0.000e+00
   4.144e-01   0.000e+00   0.000e+00
   3.545e-01   0.000e+00   0.000e+00
   3.545e-01   0.000e+00   0.000e+00
   4.101e-01   0.000e+00   0.000e+00
   4.743e-01   0.000e+00   0.000e+00
   3.029e-01   0.000e+00   0.000e+00
   3.545e-01   0.000e+00   0.000e+00
   4.101e-01   0.000e+00   0.000e+00
   2.588e-01   0.000e+00   0.000e+00
   3.066e-01   0.000e+00   0.000e+00
   3.545e-01   0.000e+00   0.000e+00
   2.212e-01   0.000e+00   0.000e+00
   2.656e-01   0.000e+00   0.000e+00
   3.066e-01   0.000e+00   0.000e+00
   1.894e-01   0.000e+00   0.000e+00
   2.307e-01   0.000e+00   0.000e+00
   2.656e-01   0.000e+00   0.000e+00
   1.627e-01   0.000e+00   0.000e+00
   2.012e-01   0.000e+00   0.000e+00
   2.307e-01   0.000e+00   0.000e+00
   1.406e-01   0.000e+00   0.000e+00
   1.765e-01   0.000e+00   0.000e+00
   2.012e-01   0.000e+00   0.000e+00
   1.224e-01   0.000e+00   0.000e+00
   1.561e-01   0.000e+00   0.000e+00
   1.765e-01   0.000e+00   0.000e+00
   1.076e-01   0.000e+00   0.000e+00
   1.394e-01   0.000e+00   0.000e+00
   1.561e-01   0.000e+00   0.000e+00
   9.589e-02   0.000e+00   0.000e+00
   1.260e-01   0.000e+00   0.000e+00
   1.394e-01   0.000e+00   0.000e+00
   8.678e-02   0.000e+00   0.000e+00
   1.155e-01   0.000e+00   0.000e+00
   1.260e-01   0.000e+00   0.000e+00
   8.002e-02   0.000e+00   0.000e+00
   1.077e-01   0.000e+00   0.000e+00
   1.155e-01   0.000e+00   0.000e+00
   7.537e-02   0.000e+00   0.000e+00
   1.023e-01   0.000e+00   0.000e+00
   1.077e-01   0.000e+00   0.000e+00
   7.266e-02   0.000e+00   0.000e+00
   9.910e-02   0.000e+00   0.000e+00
   1.023e-01   0.000e+00   0.000e+00
   7.179e-02   0.000e+00   0.000e+00
   9.807e-02   0.000e+00   0.000e+00
   9.910e-02   0.000e+00   0.000e+00
   7.272e-02   0.000e+00   0.000e+00
   9.913e-02   0.000e+00   0.000e+00
   9.807e-02   0.000e+00   0.000e+00
   7.547e-02   0.000e+00   0.000e+00
   1.023e-01   0.000e+00   0.000e+00
   9.913e-02   0.000e+00   0.000e+00
   8.015e-02   0.000e+00   0.000e+00
   1.078e-01   0.000e+00   0.000e+00
   1.023e-01   0.000e+00   0.000e+00
   8.693e-02   0.000e+00   0.000e+00
   1.156e-01   0.000e+00   0.000e+00
   1.078e-01   0.000e+00   0.000e+00
   9.604e-02   0.000e+00   0.000e+00
   1.261e-01   0.000e+00   0.000e+00
   1.156e-01   0.000e+00   0.000e+00
   1.078e-01   0.000e+00   0.000e+00
   1.394e-01   0.000e+00   0.000e+00
   1.261e-01   0.000e+00   0.000e+00
   1.225e-01   0.000e+00   0.000e+00
   1.562e-01   0.000e+00   0.000e+00
   1.394e-01   0.000e+00   0.000e+00
   1.407e-01   0.000e+00   0.000e+00
   1.766e-01   0.000e+00   0.000e+00
   1.562e-01   0.000e+00   0.000e+00
   1.628e-01   0.000e+00   0.000e+00
   2.013e-01   0.000e+00   0.000e+00
   1.766e-01   0.000e+00   0.000e+00
   1.894e-01   0.000e+00   0.000e+00
   2.307e-01   0.000e+00   0.000e+00
   2.013e-01   0.000e+00   0.000e+00
   2.212e-01   0.000e+00   0.000e+00
   2.656e-01   0.000e+00   0.000e+00
   2.307e-01   0.000e+00   0.000e+00
   2.588e-01   0.000e+00   0.000e+00
   3.066e-01   0.000e+00   0.000e+00
   2.656e-01   0.000e+00   0.000e+00
   3.030e-01   0.000e+00   0.000e+00
   3.545e-01   0.000e+00   0.000e+00
   3.066e-01   0.000e+00   0.000e+00
   3.545e-01   0.000e+00   0.000e+00
   4.101e-01   0.000e+00   0.000e+00
   3.545e-01   0.000e+00   0.000e+00
   4.144e-01   0.000e+00   0.000e+00
   4.743e-01   0.000e+00   0.000e+00
   4.101e-01   0.000e+00   0.000e+00
   4.101e-01   0.000e+00   0.000e+00
   4.743e-01   0.000e+00   0.000e+00
   5.431e-01   0.000e+00   0.000e+00
   3.545e-01   0.000e+00   0.000e+00
   4.144e-01   0.000e+00   0.000e+00
   4.743e-01   0.000e+00   0.000e+00
   3.066e-01   0.000e+00   0.000e+00
   3.625e-01   0.000e+00   0.000e+00
   4.144e-01   0.000e+00   0.000e+00
   2.656e-01   0.000e+00   0.000e+00
   3.178e-01   0.000e+00   0.000e+00
   3.625e-01   0.000e+00   0.000e+00
   2.307e-01   0.000e+00   0.000e+00
   2.796e-01   0.000e+00   0.000e+00
   3.178e-01   0.000e+00   0.000e+00
   2.012e-01   0.000e+00   0.000e+00
   2.470e-01   0.000e+00   0.000e+00
   2.796e-01   0.000e+00   0.000e+00
   1.765e-01   0.000e+00   0.000e+00
   2.196e-01   0.000e+00   0.000e+00
   2.470e-01   0.000e+00   0.000e+00
   1.561e-01   0.000e+00   0.000e+00
   1.968e-01   0.000e+00   0.000e+00
   2.196e-01   0.000e+00   0.000e+00
   1.394e-01   0.000e+00   0.000e+00
   1.780e-01   0.000e+00   0.000e+00
   1.968e-01   0.000e+00   0.000e+00
   1.260e-01   0.000e+00   0.000e+00
   1.628e-01   0.000e+00   0.000e+00
   1.780e-01   0.000e+00   0.000e+00
   1.155e-01   0.000e+00   0.000e+00
   1.509e-01   0.000e+00   0.000e+00
   1.628e-01   0.000e+00   0.000e+00
   1.077e-01   0.000e+00   0.000e+00
   1.419e-01   0.000e+00   0.000e+00
   1.509e-01   0.000e+00   0.000e+00
   1.023e-01   0.000e+00   0.000e+00
   1.357e-01   0.000e+00   0.000e+00
   1.419e-01   0.000e+00   0.000e+00
   9.910e-02   0.000e+00   0.000e+00
   1.320e-01   0.000e+00   0.000e+00
   1.357e-01   0.000e+00   0.000e+00
   9.807e-02   0.000e+00   0.000e+00
   1.308e-01   0.000e+00   0.000e+00
   1.320e-01   0.000e+00   0.000e+00
   9.913e-02   0.000e+00   0.000e+00
   1.320e-01   0.000e+00   0.000e+00
   1.308e-01   0.000e+00   0.000e+00
   1.023e-01   0.000e+00   0.000e+00
   1.357e-01   0.000e+00   0.000e+00
   1.320e-01   0.000e+00   0.000e+00
   1.078e-01   0.000e+00   0.000e+00
   1.419e-01   0.000e+00   0.000e+00
   1.357e-01   0.000e+00   0.000e+00
   1.156e-01   0.000e+00   0.000e+00
   1.509e-01   0.000e+00   0.000e+00
   1.419e-01   0.000e+00   0.000e+00
   1.261e-01   0.000e+00   0.000e+00
   1.628e-01   0.000e+00   0.000e+00
   1.509e-01   0.000e+00   0.000e+00
   1.394e-01   0.000e+00   0.000e+00
   1.780e-01   0.000e+00   0.000e+00
   1.628e-01   0.000e+00   0.000e+00
   1.562e-01   0.000e+00   0.000e+00
   1.968e-01   0.000e+00   0.000e+00
   1.780e-01   0.000e+00   0.000e+00
   1.766e-01   0.000e+00   0.000e+00
   2.196e-01   0.000e+00   0.000e+00
   1.968e-01   0.000e+00   0.000e+00
   2.013e-01   0.000e+00   0.000e+00
   2.470e-01   0.000e+00   0.000e+00
   2.196e-01   0.000e+00   0.000e+00
   2.307e-01   0.000e+00   0.000e+00
   2.796e-01   0.000e+00   0.000e+00
   2.470e-01   0.000e+00   0.000e+00
   2.656e-01   0.000e+00   0.000e+00
   3.178e-01   0.000e+00   0.000e+00
   2.796e-01   0.000e+00   0.000e+00
   3.066e-01   0.000e+00   0.000e+00
   3.625e-01   0.000e+00   0.000e+00
   3.178e-01   0.000e+00   0.000e+00
   3.545e-01   0.000e+00   0.000e+00
   4.144e-01   0.000e+00   0.000e+00
   3.625e-01   0.000e+00   0.000e+00
   4.101e-01   0.000e+00   0.000e+00
   4.743e-01   0.000e+00   0.000e+00
   4.144e-01   0.000e+00   0.000e+00
   4.743e-01   0.000e+00   0.000e+00
   5.431e-01   0.000e+00   0.000e+00
   4.743e-01   0.000e+00   0.000e+00
