# vtk DataFile Version 2.0
Bulk mesh generated by generateVTK.m
ASCII
DATASET UNSTRUCTURED_GRID

POINTS 2928 float
  -1.085e+00  -1.085e+00   0.000e+00
  -9.494e-01  -1.085e+00   0.000e+00
  -1.085e+00  -9.494e-01   0.000e+00
  -9.494e-01  -1.085e+00   0.000e+00
  -8.137e-01  -1.085e+00   0.000e+00
  -9.494e-01  -9.494e-01   0.000e+00
  -8.137e-01  -1.085e+00   0.000e+00
  -6.781e-01  -1.085e+00   0.000e+00
  -8.137e-01  -9.494e-01   0.000e+00
  -6.781e-01  -1.085e+00   0.000e+00
  -5.425e-01  -1.085e+00   0.000e+00
  -6.781e-01  -9.494e-01   0.000e+00
  -5.425e-01  -1.085e+00   0.000e+00
  -4.069e-01  -1.085e+00   0.000e+00
  -5.425e-01  -9.494e-01   0.000e+00
  -4.069e-01  -1.085e+00   0.000e+00
  -2.712e-01  -1.085e+00   0.000e+00
  -4.069e-01  -9.494e-01   0.000e+00
  -2.712e-01  -1.085e+00   0.000e+00
  -1.356e-01  -1.085e+00   0.000e+00
  -2.712e-01  -9.494e-01   0.000e+00
  -1.356e-01  -1.085e+00   0.000e+00
   0.000e+00  -1.085e+00   0.000e+00
  -1.356e-01  -9.494e-01   0.000e+00
   0.000e+00  -1.085e+00   0.000e+00
   1.356e-01  -1.085e+00   0.000e+00
   0.000e+00  -9.494e-01   0.000e+00
   1.356e-01  -1.085e+00   0.000e+00
   2.712e-01  -1.085e+00   0.000e+00
   1.356e-01  -9.494e-01   0.000e+00
   2.712e-01  -1.085e+00   0.000e+00
   4.069e-01  -1.085e+00   0.000e+00
   2.712e-01  -9.494e-01   0.000e+00
   4.069e-01  -1.085e+00   0.000e+00
   5.425e-01  -1.085e+00   0.000e+00
   4.069e-01  -9.494e-01   0.000e+00
   5.425e-01  -1.085e+00   0.000e+00
   6.781e-01  -1.085e+00   0.000e+00
   5.425e-01  -9.494e-01   0.000e+00
   6.781e-01  -1.085e+00   0.000e+00
   8.137e-01  -1.085e+00   0.000e+00
   6.781e-01  -9.494e-01   0.000e+00
   8.137e-01  -1.085e+00   0.000e+00
   9.494e-01  -1.085e+00   0.000e+00
   8.137e-01  -9.494e-01   0.000e+00
   9.494e-01  -1.085e+00   0.000e+00
   1.085e+00  -1.085e+00   0.000e+00
   9.494e-01  -9.494e-01   0.000e+00
  -1.085e+00  -9.494e-01   0.000e+00
  -9.494e-01  -9.494e-01   0.000e+00
  -1.085e+00  -8.137e-01   0.000e+00
  -9.494e-01  -9.494e-01   0.000e+00
  -8.137e-01  -9.494e-01   0.000e+00
  -9.494e-01  -8.137e-01   0.000e+00
  -8.137e-01  -9.494e-01   0.000e+00
  -6.781e-01  -9.494e-01   0.000e+00
  -8.137e-01  -8.137e-01   0.000e+00
  -6.781e-01  -9.494e-01   0.000e+00
  -5.425e-01  -9.494e-01   0.000e+00
  -6.781e-01  -8.137e-01   0.000e+00
  -5.425e-01  -9.494e-01   0.000e+00
  -4.069e-01  -9.494e-01   0.000e+00
  -5.425e-01  -8.137e-01   0.000e+00
  -4.069e-01  -9.494e-01   0.000e+00
  -2.712e-01  -9.494e-01   0.000e+00
  -4.069e-01  -8.137e-01   0.000e+00
  -2.712e-01  -9.494e-01   0.000e+00
  -1.356e-01  -9.494e-01   0.000e+00
  -2.712e-01  -8.137e-01   0.000e+00
  -1.356e-01  -9.494e-01   0.000e+00
   0.000e+00  -9.494e-01   0.000e+00
  -1.356e-01  -8.137e-01   0.000e+00
   0.000e+00  -9.494e-01   0.000e+00
   1.356e-01  -9.494e-01   0.000e+00
   0.000e+00  -8.137e-01   0.000e+00
   1.356e-01  -9.494e-01   0.000e+00
   2.712e-01  -9.494e-01   0.000e+00
   1.356e-01  -8.137e-01   0.000e+00
   2.712e-01  -9.494e-01   0.000e+00
   4.069e-01  -9.494e-01   0.000e+00
   2.712e-01  -8.137e-01   0.000e+00
   4.069e-01  -9.494e-01   0.000e+00
   5.425e-01  -9.494e-01   0.000e+00
   4.069e-01  -8.137e-01   0.000e+00
   5.425e-01  -9.494e-01   0.000e+00
   6.781e-01  -9.494e-01   0.000e+00
   5.425e-01  -8.137e-01   0.000e+00
   6.781e-01  -9.494e-01   0.000e+00
   8.137e-01  -9.494e-01   0.000e+00
   6.781e-01  -8.137e-01   0.000e+00
   8.137e-01  -9.494e-01   0.000e+00
   9.494e-01  -9.494e-01   0.000e+00
   8.137e-01  -8.137e-01   0.000e+00
   9.494e-01  -9.494e-01   0.000e+00
   1.085e+00  -9.494e-01   0.000e+00
   9.494e-01  -8.137e-01   0.000e+00
  -1.085e+00  -8.137e-01   0.000e+00
  -9.494e-01  -8.137e-01   0.000e+00
  -1.085e+00  -6.781e-01   0.000e+00
  -9.494e-01  -8.137e-01   0.000e+00
  -8.137e-01  -8.137e-01   0.000e+00
  -9.494e-01  -6.781e-01   0.000e+00
  -8.137e-01  -8.137e-01   0.000e+00
  -6.781e-01  -8.137e-01   0.000e+00
  -8.137e-01  -6.781e-01   0.000e+00
  -6.781e-01  -8.137e-01   0.000e+00
  -5.425e-01  -8.137e-01   0.000e+00
  -6.781e-01  -6.781e-01   0.000e+00
  -5.425e-01  -8.137e-01   0.000e+00
  -4.069e-01  -8.137e-01   0.000e+00
  -5.425e-01  -6.781e-01   0.000e+00
  -4.069e-01  -8.137e-01   0.000e+00
  -2.712e-01  -8.137e-01   0.000e+00
  -4.069e-01  -6.781e-01   0.000e+00
  -2.712e-01  -8.137e-01   0.000e+00
  -1.356e-01  -8.137e-01   0.000e+00
  -2.712e-01  -6.781e-01   0.000e+00
  -1.356e-01  -8.137e-01   0.000e+00
   0.000e+00  -8.137e-01   0.000e+00
  -1.356e-01  -6.781e-01   0.000e+00
   0.000e+00  -8.137e-01   0.000e+00
   1.356e-01  -8.137e-01   0.000e+00
   0.000e+00  -6.781e-01   0.000e+00
   1.356e-01  -8.137e-01   0.000e+00
   2.712e-01  -8.137e-01   0.000e+00
   1.356e-01  -6.781e-01   0.000e+00
   2.712e-01  -8.137e-01   0.000e+00
   4.069e-01  -8.137e-01   0.000e+00
   2.712e-01  -6.781e-01   0.000e+00
   4.069e-01  -8.137e-01   0.000e+00
   5.425e-01  -8.137e-01   0.000e+00
   4.069e-01  -6.781e-01   0.000e+00
   5.425e-01  -8.137e-01   0.000e+00
   6.781e-01  -8.137e-01   0.000e+00
   5.425e-01  -6.781e-01   0.000e+00
   6.781e-01  -8.137e-01   0.000e+00
   8.137e-01  -8.137e-01   0.000e+00
   6.781e-01  -6.781e-01   0.000e+00
   8.137e-01  -8.137e-01   0.000e+00
   9.494e-01  -8.137e-01   0.000e+00
   8.137e-01  -6.781e-01   0.000e+00
   9.494e-01  -8.137e-01   0.000e+00
   1.085e+00  -8.137e-01   0.000e+00
   9.494e-01  -6.781e-01   0.000e+00
  -1.085e+00  -6.781e-01   0.000e+00
  -9.494e-01  -6.781e-01   0.000e+00
  -1.085e+00  -5.425e-01   0.000e+00
  -9.494e-01  -6.781e-01   0.000e+00
  -8.137e-01  -6.781e-01   0.000e+00
  -9.494e-01  -5.425e-01   0.000e+00
  -8.137e-01  -6.781e-01   0.000e+00
  -6.781e-01  -6.781e-01   0.000e+00
  -8.137e-01  -5.425e-01   0.000e+00
  -6.781e-01  -6.781e-01   0.000e+00
  -5.425e-01  -6.781e-01   0.000e+00
  -6.781e-01  -5.425e-01   0.000e+00
  -5.425e-01  -6.781e-01   0.000e+00
  -4.069e-01  -6.781e-01   0.000e+00
  -5.425e-01  -5.425e-01   0.000e+00
  -4.069e-01  -6.781e-01   0.000e+00
  -2.712e-01  -6.781e-01   0.000e+00
  -4.069e-01  -5.425e-01   0.000e+00
  -2.712e-01  -6.781e-01   0.000e+00
  -1.356e-01  -6.781e-01   0.000e+00
  -2.712e-01  -5.425e-01   0.000e+00
  -1.356e-01  -6.781e-01   0.000e+00
   0.000e+00  -6.781e-01   0.000e+00
  -1.356e-01  -5.425e-01   0.000e+00
   0.000e+00  -6.781e-01   0.000e+00
   1.356e-01  -6.781e-01   0.000e+00
   0.000e+00  -5.425e-01   0.000e+00
   1.356e-01  -6.781e-01   0.000e+00
   2.712e-01  -6.781e-01   0.000e+00
   1.356e-01  -5.425e-01   0.000e+00
   2.712e-01  -6.781e-01   0.000e+00
   4.069e-01  -6.781e-01   0.000e+00
   2.712e-01  -5.425e-01   0.000e+00
   4.069e-01  -6.781e-01   0.000e+00
   5.425e-01  -6.781e-01   0.000e+00
   4.069e-01  -5.425e-01   0.000e+00
   5.425e-01  -6.781e-01   0.000e+00
   6.781e-01  -6.781e-01   0.000e+00
   5.425e-01  -5.425e-01   0.000e+00
   6.781e-01  -6.781e-01   0.000e+00
   8.137e-01  -6.781e-01   0.000e+00
   6.781e-01  -5.425e-01   0.000e+00
   8.137e-01  -6.781e-01   0.000e+00
   9.494e-01  -6.781e-01   0.000e+00
   8.137e-01  -5.425e-01   0.000e+00
   9.494e-01  -6.781e-01   0.000e+00
   1.085e+00  -6.781e-01   0.000e+00
   9.494e-01  -5.425e-01   0.000e+00
  -1.085e+00  -5.425e-01   0.000e+00
  -9.494e-01  -5.425e-01   0.000e+00
  -1.085e+00  -4.069e-01   0.000e+00
  -9.494e-01  -5.425e-01   0.000e+00
  -8.137e-01  -5.425e-01   0.000e+00
  -9.494e-01  -4.069e-01   0.000e+00
  -8.137e-01  -5.425e-01   0.000e+00
  -6.781e-01  -5.425e-01   0.000e+00
  -8.137e-01  -4.069e-01   0.000e+00
  -6.781e-01  -5.425e-01   0.000e+00
  -5.425e-01  -5.425e-01   0.000e+00
  -6.781e-01  -4.069e-01   0.000e+00
  -5.425e-01  -5.425e-01   0.000e+00
  -4.069e-01  -5.425e-01   0.000e+00
  -5.425e-01  -4.069e-01   0.000e+00
  -4.069e-01  -5.425e-01   0.000e+00
  -3.391e-01  -5.425e-01   0.000e+00
  -4.069e-01  -4.747e-01   0.000e+00
  -2.798e-01  -5.340e-01   0.000e+00
  -3.391e-01  -5.345e-01   0.000e+00
  -3.391e-01  -4.747e-01   0.000e+00
  -2.712e-01  -5.425e-01   0.000e+00
  -2.798e-01  -5.340e-01   0.000e+00
  -3.391e-01  -5.345e-01   0.000e+00
  -3.391e-01  -5.425e-01   0.000e+00
  -3.391e-01  -4.747e-01   0.000e+00
  -3.391e-01  -5.345e-01   0.000e+00
  -4.000e-01  -4.747e-01   0.000e+00
  -3.391e-01  -5.345e-01   0.000e+00
  -4.000e-01  -4.747e-01   0.000e+00
  -4.069e-01  -4.747e-01   0.000e+00
  -3.391e-01  -5.425e-01   0.000e+00
  -4.069e-01  -4.069e-01   0.000e+00
  -4.000e-01  -4.747e-01   0.000e+00
  -4.069e-01  -4.228e-01   0.000e+00
  -3.391e-01  -4.747e-01   0.000e+00
  -4.000e-01  -4.747e-01   0.000e+00
  -4.069e-01  -4.228e-01   0.000e+00
  -4.069e-01  -4.747e-01   0.000e+00
  -2.712e-01  -5.345e-01   0.000e+00
  -2.277e-01  -5.182e-01   0.000e+00
  -2.712e-01  -4.747e-01   0.000e+00
  -2.712e-01  -5.425e-01   0.000e+00
  -2.034e-01  -5.425e-01   0.000e+00
  -2.712e-01  -5.345e-01   0.000e+00
  -2.277e-01  -5.182e-01   0.000e+00
  -1.844e-01  -4.937e-01   0.000e+00
  -2.034e-01  -5.054e-01   0.000e+00
  -2.034e-01  -4.747e-01   0.000e+00
  -1.356e-01  -5.425e-01   0.000e+00
  -1.844e-01  -4.937e-01   0.000e+00
  -2.034e-01  -5.054e-01   0.000e+00
  -2.034e-01  -5.425e-01   0.000e+00
  -2.034e-01  -4.747e-01   0.000e+00
  -2.712e-01  -4.747e-01   0.000e+00
  -2.277e-01  -5.182e-01   0.000e+00
  -2.034e-01  -5.054e-01   0.000e+00
  -2.277e-01  -5.182e-01   0.000e+00
  -2.034e-01  -5.054e-01   0.000e+00
  -2.034e-01  -5.425e-01   0.000e+00
  -2.712e-01  -4.069e-01   0.000e+00
  -2.712e-01  -4.747e-01   0.000e+00
  -2.034e-01  -4.747e-01   0.000e+00
  -1.356e-01  -5.425e-01   0.000e+00
  -6.781e-02  -5.425e-01   0.000e+00
  -1.356e-01  -4.747e-01   0.000e+00
   0.000e+00  -5.425e-01   0.000e+00
  -6.781e-02  -4.747e-01   0.000e+00
  -6.781e-02  -5.425e-01   0.000e+00
  -6.781e-02  -4.747e-01   0.000e+00
  -1.356e-01  -4.747e-01   0.000e+00
  -6.781e-02  -5.425e-01   0.000e+00
  -1.356e-01  -4.069e-01   0.000e+00
  -1.356e-01  -4.550e-01   0.000e+00
  -1.107e-01  -4.318e-01   0.000e+00
  -1.356e-01  -4.550e-01   0.000e+00
  -1.107e-01  -4.318e-01   0.000e+00
  -1.356e-01  -4.747e-01   0.000e+00
  -6.781e-02  -4.747e-01   0.000e+00
   0.000e+00  -5.425e-01   0.000e+00
   1.356e-01  -5.425e-01   0.000e+00
   0.000e+00  -4.069e-01   0.000e+00
   1.356e-01  -5.425e-01   0.000e+00
   2.712e-01  -5.425e-01   0.000e+00
   1.356e-01  -4.069e-01   0.000e+00
   2.712e-01  -4.917e-01   0.000e+00
   3.057e-01  -5.092e-01   0.000e+00
   2.712e-01  -4.747e-01   0.000e+00
   2.712e-01  -5.425e-01   0.000e+00
   3.391e-01  -5.425e-01   0.000e+00
   2.712e-01  -4.917e-01   0.000e+00
   3.057e-01  -5.092e-01   0.000e+00
   4.023e-01  -5.379e-01   0.000e+00
   3.391e-01  -5.277e-01   0.000e+00
   3.391e-01  -4.747e-01   0.000e+00
   4.069e-01  -5.425e-01   0.000e+00
   4.023e-01  -5.379e-01   0.000e+00
   3.391e-01  -5.277e-01   0.000e+00
   3.391e-01  -5.425e-01   0.000e+00
   3.391e-01  -4.747e-01   0.000e+00
   2.712e-01  -4.747e-01   0.000e+00
   3.057e-01  -5.092e-01   0.000e+00
   3.391e-01  -5.277e-01   0.000e+00
   3.057e-01  -5.092e-01   0.000e+00
   3.391e-01  -5.277e-01   0.000e+00
   3.391e-01  -5.425e-01   0.000e+00
   2.712e-01  -4.069e-01   0.000e+00
   2.712e-01  -4.747e-01   0.000e+00
   3.391e-01  -4.747e-01   0.000e+00
   4.069e-01  -5.389e-01   0.000e+00
   4.541e-01  -5.219e-01   0.000e+00
   4.069e-01  -4.747e-01   0.000e+00
   4.069e-01  -5.425e-01   0.000e+00
   4.747e-01  -5.425e-01   0.000e+00
   4.069e-01  -5.389e-01   0.000e+00
   4.541e-01  -5.219e-01   0.000e+00
   4.851e-01  -4.851e-01   0.000e+00
   4.747e-01  -4.976e-01   0.000e+00
   4.747e-01  -4.747e-01   0.000e+00
   5.425e-01  -5.425e-01   0.000e+00
   4.851e-01  -4.851e-01   0.000e+00
   4.747e-01  -4.976e-01   0.000e+00
   4.747e-01  -5.425e-01   0.000e+00
   4.747e-01  -4.747e-01   0.000e+00
   4.069e-01  -4.747e-01   0.000e+00
   4.541e-01  -5.219e-01   0.000e+00
   4.747e-01  -4.976e-01   0.000e+00
   4.541e-01  -5.219e-01   0.000e+00
   4.747e-01  -4.976e-01   0.000e+00
   4.747e-01  -5.425e-01   0.000e+00
   4.069e-01  -4.069e-01   0.000e+00
   4.069e-01  -4.747e-01   0.000e+00
   4.747e-01  -4.747e-01   0.000e+00
   5.425e-01  -5.425e-01   0.000e+00
   6.781e-01  -5.425e-01   0.000e+00
   5.425e-01  -4.069e-01   0.000e+00
   6.781e-01  -5.425e-01   0.000e+00
   8.137e-01  -5.425e-01   0.000e+00
   6.781e-01  -4.069e-01   0.000e+00
   8.137e-01  -5.425e-01   0.000e+00
   9.494e-01  -5.425e-01   0.000e+00
   8.137e-01  -4.069e-01   0.000e+00
   9.494e-01  -5.425e-01   0.000e+00
   1.085e+00  -5.425e-01   0.000e+00
   9.494e-01  -4.069e-01   0.000e+00
  -1.085e+00  -4.069e-01   0.000e+00
  -9.494e-01  -4.069e-01   0.000e+00
  -1.085e+00  -2.712e-01   0.000e+00
  -9.494e-01  -4.069e-01   0.000e+00
  -8.137e-01  -4.069e-01   0.000e+00
  -9.494e-01  -2.712e-01   0.000e+00
  -8.137e-01  -4.069e-01   0.000e+00
  -6.781e-01  -4.069e-01   0.000e+00
  -8.137e-01  -2.712e-01   0.000e+00
  -6.781e-01  -4.069e-01   0.000e+00
  -5.425e-01  -4.069e-01   0.000e+00
  -6.781e-01  -2.712e-01   0.000e+00
  -5.425e-01  -4.069e-01   0.000e+00
  -4.747e-01  -4.069e-01   0.000e+00
  -5.425e-01  -3.391e-01   0.000e+00
  -4.069e-01  -4.069e-01   0.000e+00
  -4.085e-01  -4.053e-01   0.000e+00
  -4.087e-01  -4.069e-01   0.000e+00
  -4.085e-01  -4.053e-01   0.000e+00
  -4.087e-01  -4.069e-01   0.000e+00
  -4.747e-01  -3.391e-01   0.000e+00
  -4.747e-01  -4.069e-01   0.000e+00
  -4.747e-01  -3.391e-01   0.000e+00
  -5.425e-01  -3.391e-01   0.000e+00
  -4.747e-01  -4.069e-01   0.000e+00
  -5.425e-01  -2.712e-01   0.000e+00
  -5.425e-01  -3.391e-01   0.000e+00
  -4.747e-01  -3.391e-01   0.000e+00
  -4.069e-01  -4.069e-01   0.000e+00
  -3.391e-01  -4.069e-01   0.000e+00
  -4.069e-01  -3.963e-01   0.000e+00
  -3.984e-01  -3.476e-01   0.000e+00
  -4.069e-01  -3.963e-01   0.000e+00
  -3.984e-01  -3.476e-01   0.000e+00
  -4.069e-01  -3.391e-01   0.000e+00
  -2.712e-01  -4.069e-01   0.000e+00
  -3.391e-01  -3.391e-01   0.000e+00
  -3.391e-01  -4.069e-01   0.000e+00
  -3.391e-01  -3.391e-01   0.000e+00
  -3.984e-01  -3.476e-01   0.000e+00
  -3.964e-01  -3.391e-01   0.000e+00
  -3.391e-01  -4.069e-01   0.000e+00
  -3.984e-01  -3.476e-01   0.000e+00
  -3.964e-01  -3.391e-01   0.000e+00
  -4.069e-01  -3.391e-01   0.000e+00
  -3.964e-01  -3.391e-01   0.000e+00
  -3.814e-01  -2.967e-01   0.000e+00
  -3.391e-01  -3.391e-01   0.000e+00
  -4.069e-01  -2.712e-01   0.000e+00
  -4.069e-01  -3.391e-01   0.000e+00
  -3.964e-01  -3.391e-01   0.000e+00
  -3.814e-01  -2.967e-01   0.000e+00
  -2.712e-01  -4.069e-01   0.000e+00
  -1.356e-01  -4.069e-01   0.000e+00
  -2.712e-01  -2.712e-01   0.000e+00
  -1.356e-01  -4.069e-01   0.000e+00
  -8.780e-02  -4.069e-01   0.000e+00
  -7.825e-02  -3.964e-01   0.000e+00
  -1.356e-01  -3.391e-01   0.000e+00
  -8.780e-02  -4.069e-01   0.000e+00
  -7.825e-02  -3.964e-01   0.000e+00
  -6.781e-02  -4.069e-01   0.000e+00
  -4.789e-02  -3.590e-01   0.000e+00
  -6.781e-02  -3.835e-01   0.000e+00
  -6.781e-02  -3.391e-01   0.000e+00
   0.000e+00  -4.069e-01   0.000e+00
  -4.789e-02  -3.590e-01   0.000e+00
  -6.781e-02  -3.835e-01   0.000e+00
  -6.781e-02  -4.069e-01   0.000e+00
  -6.781e-02  -3.391e-01   0.000e+00
  -1.356e-01  -3.391e-01   0.000e+00
  -7.825e-02  -3.964e-01   0.000e+00
  -6.781e-02  -3.835e-01   0.000e+00
  -7.825e-02  -3.964e-01   0.000e+00
  -6.781e-02  -3.835e-01   0.000e+00
  -6.781e-02  -4.069e-01   0.000e+00
  -1.356e-01  -2.712e-01   0.000e+00
  -1.356e-01  -3.391e-01   0.000e+00
  -6.781e-02  -3.391e-01   0.000e+00
   0.000e+00  -4.069e-01   0.000e+00
   6.781e-02  -4.069e-01   0.000e+00
   0.000e+00  -3.391e-01   0.000e+00
   1.356e-01  -4.069e-01   0.000e+00
   6.781e-02  -3.391e-01   0.000e+00
   6.781e-02  -4.069e-01   0.000e+00
   6.781e-02  -3.391e-01   0.000e+00
   0.000e+00  -3.391e-01   0.000e+00
   6.781e-02  -4.069e-01   0.000e+00
   0.000e+00  -2.712e-01   0.000e+00
   0.000e+00  -2.945e-01   0.000e+00
   1.625e-02  -2.875e-01   0.000e+00
   0.000e+00  -2.945e-01   0.000e+00
   1.625e-02  -2.875e-01   0.000e+00
   0.000e+00  -3.391e-01   0.000e+00
   6.781e-02  -3.391e-01   0.000e+00
   1.773e-01  -4.069e-01   0.000e+00
   1.356e-01  -3.563e-01   0.000e+00
   2.034e-01  -4.069e-01   0.000e+00
   1.356e-01  -3.391e-01   0.000e+00
   1.356e-01  -4.069e-01   0.000e+00
   1.773e-01  -4.069e-01   0.000e+00
   1.356e-01  -3.563e-01   0.000e+00
   2.712e-01  -4.069e-01   0.000e+00
   2.034e-01  -3.391e-01   0.000e+00
   2.034e-01  -4.069e-01   0.000e+00
   2.034e-01  -3.391e-01   0.000e+00
   1.356e-01  -3.391e-01   0.000e+00
   2.034e-01  -4.069e-01   0.000e+00
   1.356e-01  -2.712e-01   0.000e+00
   1.356e-01  -3.391e-01   0.000e+00
   2.034e-01  -3.391e-01   0.000e+00
   2.712e-01  -4.069e-01   0.000e+00
   4.069e-01  -4.069e-01   0.000e+00
   2.712e-01  -2.712e-01   0.000e+00
   4.069e-01  -4.069e-01   0.000e+00
   4.747e-01  -4.069e-01   0.000e+00
   4.069e-01  -3.391e-01   0.000e+00
   4.880e-01  -3.524e-01   0.000e+00
   4.982e-01  -4.069e-01   0.000e+00
   4.747e-01  -3.391e-01   0.000e+00
   4.747e-01  -4.069e-01   0.000e+00
   5.425e-01  -4.069e-01   0.000e+00
   4.880e-01  -3.524e-01   0.000e+00
   4.982e-01  -4.069e-01   0.000e+00
   4.747e-01  -3.391e-01   0.000e+00
   4.069e-01  -3.391e-01   0.000e+00
   4.747e-01  -4.069e-01   0.000e+00
   4.069e-01  -2.712e-01   0.000e+00
   4.069e-01  -3.391e-01   0.000e+00
   4.747e-01  -3.391e-01   0.000e+00
   5.425e-01  -4.069e-01   0.000e+00
   6.781e-01  -4.069e-01   0.000e+00
   5.425e-01  -2.712e-01   0.000e+00
   6.781e-01  -4.069e-01   0.000e+00
   8.137e-01  -4.069e-01   0.000e+00
   6.781e-01  -2.712e-01   0.000e+00
   8.137e-01  -4.069e-01   0.000e+00
   9.494e-01  -4.069e-01   0.000e+00
   8.137e-01  -2.712e-01   0.000e+00
   9.494e-01  -4.069e-01   0.000e+00
   1.085e+00  -4.069e-01   0.000e+00
   9.494e-01  -2.712e-01   0.000e+00
  -1.085e+00  -2.712e-01   0.000e+00
  -9.494e-01  -2.712e-01   0.000e+00
  -1.085e+00  -1.356e-01   0.000e+00
  -9.494e-01  -2.712e-01   0.000e+00
  -8.137e-01  -2.712e-01   0.000e+00
  -9.494e-01  -1.356e-01   0.000e+00
  -8.137e-01  -2.712e-01   0.000e+00
  -6.781e-01  -2.712e-01   0.000e+00
  -8.137e-01  -1.356e-01   0.000e+00
  -6.781e-01  -2.712e-01   0.000e+00
  -5.425e-01  -2.712e-01   0.000e+00
  -6.781e-01  -1.356e-01   0.000e+00
  -5.425e-01  -2.712e-01   0.000e+00
  -4.069e-01  -2.712e-01   0.000e+00
  -5.425e-01  -1.356e-01   0.000e+00
  -3.705e-01  -2.712e-01   0.000e+00
  -3.601e-01  -2.502e-01   0.000e+00
  -3.391e-01  -2.712e-01   0.000e+00
  -4.069e-01  -2.712e-01   0.000e+00
  -3.705e-01  -2.712e-01   0.000e+00
  -3.601e-01  -2.502e-01   0.000e+00
  -4.069e-01  -2.034e-01   0.000e+00
  -2.712e-01  -2.712e-01   0.000e+00
  -3.357e-01  -2.068e-01   0.000e+00
  -3.391e-01  -2.128e-01   0.000e+00
  -3.391e-01  -2.712e-01   0.000e+00
  -3.357e-01  -2.068e-01   0.000e+00
  -3.391e-01  -2.128e-01   0.000e+00
  -3.391e-01  -2.034e-01   0.000e+00
  -3.601e-01  -2.502e-01   0.000e+00
  -3.391e-01  -2.128e-01   0.000e+00
  -3.391e-01  -2.712e-01   0.000e+00
  -3.391e-01  -2.034e-01   0.000e+00
  -4.069e-01  -2.034e-01   0.000e+00
  -3.601e-01  -2.502e-01   0.000e+00
  -3.391e-01  -2.128e-01   0.000e+00
  -4.069e-01  -1.356e-01   0.000e+00
  -4.069e-01  -2.034e-01   0.000e+00
  -3.391e-01  -2.034e-01   0.000e+00
  -2.712e-01  -2.712e-01   0.000e+00
  -1.356e-01  -2.712e-01   0.000e+00
  -2.712e-01  -1.356e-01   0.000e+00
  -1.356e-01  -2.712e-01   0.000e+00
   0.000e+00  -2.712e-01   0.000e+00
  -1.356e-01  -1.356e-01   0.000e+00
   0.000e+00  -2.712e-01   0.000e+00
   5.791e-02  -2.712e-01   0.000e+00
   6.540e-02  -2.688e-01   0.000e+00
   0.000e+00  -2.034e-01   0.000e+00
   5.791e-02  -2.712e-01   0.000e+00
   6.540e-02  -2.688e-01   0.000e+00
   6.781e-02  -2.712e-01   0.000e+00
   1.356e-01  -2.712e-01   0.000e+00
   6.781e-02  -2.034e-01   0.000e+00
   7.085e-02  -2.712e-01   0.000e+00
   6.781e-02  -2.685e-01   0.000e+00
   7.085e-02  -2.712e-01   0.000e+00
   6.781e-02  -2.685e-01   0.000e+00
   6.781e-02  -2.712e-01   0.000e+00
   6.781e-02  -2.034e-01   0.000e+00
   0.000e+00  -2.034e-01   0.000e+00
   6.540e-02  -2.688e-01   0.000e+00
   6.781e-02  -2.685e-01   0.000e+00
   6.540e-02  -2.688e-01   0.000e+00
   6.781e-02  -2.685e-01   0.000e+00
   6.781e-02  -2.712e-01   0.000e+00
   0.000e+00  -1.356e-01   0.000e+00
   0.000e+00  -2.034e-01   0.000e+00
   6.781e-02  -2.034e-01   0.000e+00
   1.356e-01  -2.712e-01   0.000e+00
   2.712e-01  -2.712e-01   0.000e+00
   1.356e-01  -1.356e-01   0.000e+00
   2.712e-01  -2.712e-01   0.000e+00
   4.069e-01  -2.712e-01   0.000e+00
   2.712e-01  -1.356e-01   0.000e+00
   4.069e-01  -2.712e-01   0.000e+00
   4.600e-01  -2.712e-01   0.000e+00
   4.415e-01  -2.381e-01   0.000e+00
   4.069e-01  -2.034e-01   0.000e+00
   4.600e-01  -2.712e-01   0.000e+00
   4.415e-01  -2.381e-01   0.000e+00
   4.747e-01  -2.712e-01   0.000e+00
   5.425e-01  -2.712e-01   0.000e+00
   4.747e-01  -2.034e-01   0.000e+00
   4.747e-01  -2.712e-01   0.000e+00
   4.415e-01  -2.381e-01   0.000e+00
   4.230e-01  -2.034e-01   0.000e+00
   4.069e-01  -2.034e-01   0.000e+00
   4.747e-01  -2.034e-01   0.000e+00
   4.415e-01  -2.381e-01   0.000e+00
   4.230e-01  -2.034e-01   0.000e+00
   4.747e-01  -2.712e-01   0.000e+00
   4.230e-01  -2.034e-01   0.000e+00
   4.069e-01  -1.788e-01   0.000e+00
   4.069e-01  -2.034e-01   0.000e+00
   4.069e-01  -1.356e-01   0.000e+00
   4.230e-01  -2.034e-01   0.000e+00
   4.069e-01  -1.788e-01   0.000e+00
   4.747e-01  -2.034e-01   0.000e+00
   5.425e-01  -2.712e-01   0.000e+00
   6.781e-01  -2.712e-01   0.000e+00
   5.425e-01  -1.356e-01   0.000e+00
   6.781e-01  -2.712e-01   0.000e+00
   8.137e-01  -2.712e-01   0.000e+00
   6.781e-01  -1.356e-01   0.000e+00
   8.137e-01  -2.712e-01   0.000e+00
   9.494e-01  -2.712e-01   0.000e+00
   8.137e-01  -1.356e-01   0.000e+00
   9.494e-01  -2.712e-01   0.000e+00
   1.085e+00  -2.712e-01   0.000e+00
   9.494e-01  -1.356e-01   0.000e+00
  -1.085e+00  -1.356e-01   0.000e+00
  -9.494e-01  -1.356e-01   0.000e+00
  -1.085e+00   0.000e+00   0.000e+00
  -9.494e-01  -1.356e-01   0.000e+00
  -8.137e-01  -1.356e-01   0.000e+00
  -9.494e-01   0.000e+00   0.000e+00
  -8.137e-01  -1.356e-01   0.000e+00
  -6.781e-01  -1.356e-01   0.000e+00
  -8.137e-01   0.000e+00   0.000e+00
  -6.781e-01  -1.356e-01   0.000e+00
  -5.425e-01  -1.356e-01   0.000e+00
  -6.781e-01   0.000e+00   0.000e+00
  -5.425e-01  -1.356e-01   0.000e+00
  -4.069e-01  -1.356e-01   0.000e+00
  -5.425e-01   0.000e+00   0.000e+00
  -4.069e-01  -1.356e-01   0.000e+00
  -3.391e-01  -1.356e-01   0.000e+00
  -4.069e-01  -6.781e-02   0.000e+00
  -2.712e-01  -1.356e-01   0.000e+00
  -2.830e-01  -1.238e-01   0.000e+00
  -2.875e-01  -1.356e-01   0.000e+00
  -2.830e-01  -1.238e-01   0.000e+00
  -2.875e-01  -1.356e-01   0.000e+00
  -3.391e-01  -6.781e-02   0.000e+00
  -3.391e-01  -1.356e-01   0.000e+00
  -3.391e-01  -6.781e-02   0.000e+00
  -4.069e-01  -6.781e-02   0.000e+00
  -3.391e-01  -1.356e-01   0.000e+00
  -4.069e-01   0.000e+00   0.000e+00
  -4.069e-01  -6.781e-02   0.000e+00
  -3.391e-01  -6.781e-02   0.000e+00
  -2.712e-01  -1.356e-01   0.000e+00
  -2.034e-01  -1.356e-01   0.000e+00
  -2.712e-01  -1.125e-01   0.000e+00
  -2.528e-01  -8.628e-02   0.000e+00
  -2.712e-01  -1.125e-01   0.000e+00
  -2.528e-01  -8.628e-02   0.000e+00
  -2.712e-01  -6.781e-02   0.000e+00
  -1.356e-01  -1.356e-01   0.000e+00
  -2.034e-01  -6.781e-02   0.000e+00
  -2.034e-01  -1.356e-01   0.000e+00
  -2.034e-01  -6.781e-02   0.000e+00
  -2.528e-01  -8.628e-02   0.000e+00
  -2.438e-01  -6.781e-02   0.000e+00
  -2.034e-01  -1.356e-01   0.000e+00
  -2.528e-01  -8.628e-02   0.000e+00
  -2.438e-01  -6.781e-02   0.000e+00
  -2.712e-01  -6.781e-02   0.000e+00
  -2.712e-01   0.000e+00   0.000e+00
  -2.438e-01  -6.781e-02   0.000e+00
  -2.712e-01  -3.215e-02   0.000e+00
  -2.034e-01  -6.781e-02   0.000e+00
  -2.438e-01  -6.781e-02   0.000e+00
  -2.712e-01  -3.215e-02   0.000e+00
  -2.712e-01  -6.781e-02   0.000e+00
  -1.356e-01  -1.356e-01   0.000e+00
   0.000e+00  -1.356e-01   0.000e+00
  -1.356e-01   0.000e+00   0.000e+00
   0.000e+00  -1.356e-01   0.000e+00
   1.356e-01  -1.356e-01   0.000e+00
   0.000e+00   0.000e+00   0.000e+00
   1.356e-01  -1.356e-01   0.000e+00
   2.712e-01  -1.356e-01   0.000e+00
   1.356e-01   0.000e+00   0.000e+00
   2.712e-01  -1.356e-01   0.000e+00
   3.391e-01  -1.356e-01   0.000e+00
   2.712e-01  -6.781e-02   0.000e+00
   3.770e-01  -1.356e-01   0.000e+00
   3.391e-01  -7.949e-02   0.000e+00
   3.391e-01  -1.356e-01   0.000e+00
   4.069e-01  -1.356e-01   0.000e+00
   3.391e-01  -6.781e-02   0.000e+00
   3.770e-01  -1.356e-01   0.000e+00
   3.391e-01  -7.949e-02   0.000e+00
   3.391e-01  -7.949e-02   0.000e+00
   3.324e-01  -6.781e-02   0.000e+00
   2.712e-01  -6.781e-02   0.000e+00
   3.391e-01  -1.356e-01   0.000e+00
   3.391e-01  -6.781e-02   0.000e+00
   3.391e-01  -7.949e-02   0.000e+00
   3.324e-01  -6.781e-02   0.000e+00
   2.712e-01   0.000e+00   0.000e+00
   2.712e-01  -6.781e-02   0.000e+00
   3.324e-01  -6.781e-02   0.000e+00
   3.337e-01  -6.249e-02   0.000e+00
   3.324e-01  -6.781e-02   0.000e+00
   3.337e-01  -6.249e-02   0.000e+00
   3.391e-01  -6.781e-02   0.000e+00
   4.069e-01  -1.356e-01   0.000e+00
   4.747e-01  -1.356e-01   0.000e+00
   4.069e-01  -6.781e-02   0.000e+00
   5.425e-01  -1.356e-01   0.000e+00
   4.747e-01  -6.781e-02   0.000e+00
   4.747e-01  -1.356e-01   0.000e+00
   4.747e-01  -6.781e-02   0.000e+00
   4.069e-01  -6.781e-02   0.000e+00
   4.747e-01  -1.356e-01   0.000e+00
   4.069e-01  -0.000e+00   0.000e+00
   4.069e-01  -8.804e-03   0.000e+00
   4.135e-01  -6.628e-03   0.000e+00
   4.069e-01  -8.804e-03   0.000e+00
   4.135e-01  -6.628e-03   0.000e+00
   4.069e-01  -6.781e-02   0.000e+00
   4.747e-01  -6.781e-02   0.000e+00
   5.425e-01  -1.356e-01   0.000e+00
   6.781e-01  -1.356e-01   0.000e+00
   5.425e-01   0.000e+00   0.000e+00
   6.781e-01  -1.356e-01   0.000e+00
   8.137e-01  -1.356e-01   0.000e+00
   6.781e-01   0.000e+00   0.000e+00
   8.137e-01  -1.356e-01   0.000e+00
   9.494e-01  -1.356e-01   0.000e+00
   8.137e-01   0.000e+00   0.000e+00
   9.494e-01  -1.356e-01   0.000e+00
   1.085e+00  -1.356e-01   0.000e+00
   9.494e-01  -0.000e+00   0.000e+00
  -1.085e+00   0.000e+00   0.000e+00
  -9.494e-01   0.000e+00   0.000e+00
  -1.085e+00   1.356e-01   0.000e+00
  -9.494e-01   0.000e+00   0.000e+00
  -8.137e-01   0.000e+00   0.000e+00
  -9.494e-01   1.356e-01   0.000e+00
  -8.137e-01   0.000e+00   0.000e+00
  -6.781e-01   0.000e+00   0.000e+00
  -8.137e-01   1.356e-01   0.000e+00
  -6.781e-01   0.000e+00   0.000e+00
  -5.425e-01   0.000e+00   0.000e+00
  -6.781e-01   1.356e-01   0.000e+00
  -5.425e-01   0.000e+00   0.000e+00
  -4.747e-01   0.000e+00   0.000e+00
  -5.425e-01   6.781e-02   0.000e+00
  -4.511e-01   4.423e-02   0.000e+00
  -4.747e-01   5.502e-02   0.000e+00
  -4.747e-01   6.781e-02   0.000e+00
  -4.069e-01   0.000e+00   0.000e+00
  -4.511e-01   4.423e-02   0.000e+00
  -4.747e-01   5.502e-02   0.000e+00
  -4.747e-01   0.000e+00   0.000e+00
  -4.747e-01   6.781e-02   0.000e+00
  -4.747e-01   5.502e-02   0.000e+00
  -4.957e-01   6.781e-02   0.000e+00
  -4.747e-01   5.502e-02   0.000e+00
  -4.957e-01   6.781e-02   0.000e+00
  -5.425e-01   6.781e-02   0.000e+00
  -4.747e-01   0.000e+00   0.000e+00
  -5.425e-01   1.356e-01   0.000e+00
  -4.957e-01   6.781e-02   0.000e+00
  -5.425e-01   1.003e-01   0.000e+00
  -4.747e-01   6.781e-02   0.000e+00
  -4.957e-01   6.781e-02   0.000e+00
  -5.425e-01   1.003e-01   0.000e+00
  -5.425e-01   6.781e-02   0.000e+00
  -3.441e-01   0.000e+00   0.000e+00
  -4.069e-01   2.298e-02   0.000e+00
  -3.391e-01   0.000e+00   0.000e+00
  -4.069e-01   6.781e-02   0.000e+00
  -4.069e-01   0.000e+00   0.000e+00
  -3.441e-01   0.000e+00   0.000e+00
  -4.069e-01   2.298e-02   0.000e+00
  -2.712e-01   0.000e+00   0.000e+00
  -3.391e-01   6.781e-02   0.000e+00
  -3.391e-01   0.000e+00   0.000e+00
  -3.391e-01   6.781e-02   0.000e+00
  -4.069e-01   6.781e-02   0.000e+00
  -3.391e-01   0.000e+00   0.000e+00
  -4.069e-01   1.356e-01   0.000e+00
  -4.069e-01   6.781e-02   0.000e+00
  -3.391e-01   6.781e-02   0.000e+00
  -2.712e-01   0.000e+00   0.000e+00
  -1.356e-01   0.000e+00   0.000e+00
  -2.712e-01   1.356e-01   0.000e+00
  -1.356e-01   0.000e+00   0.000e+00
   0.000e+00   0.000e+00   0.000e+00
  -1.356e-01   1.356e-01   0.000e+00
   0.000e+00   0.000e+00   0.000e+00
   1.356e-01   0.000e+00   0.000e+00
   0.000e+00   1.356e-01   0.000e+00
   1.356e-01   0.000e+00   0.000e+00
   2.712e-01   0.000e+00   0.000e+00
   1.356e-01   1.356e-01   0.000e+00
   2.712e-01   0.000e+00   0.000e+00
   4.069e-01  -0.000e+00   0.000e+00
   2.712e-01   1.356e-01   0.000e+00
   4.069e-01  -0.000e+00   0.000e+00
   4.329e-01   0.000e+00   0.000e+00
   4.641e-01   1.059e-02   0.000e+00
   4.069e-01   6.781e-02   0.000e+00
   4.329e-01   0.000e+00   0.000e+00
   4.641e-01   1.059e-02   0.000e+00
   4.747e-01   0.000e+00   0.000e+00
   5.126e-01   2.995e-02   0.000e+00
   4.747e-01   1.446e-02   0.000e+00
   4.747e-01   6.781e-02   0.000e+00
   5.425e-01   0.000e+00   0.000e+00
   5.126e-01   2.995e-02   0.000e+00
   4.747e-01   1.446e-02   0.000e+00
   4.747e-01   0.000e+00   0.000e+00
   4.747e-01   6.781e-02   0.000e+00
   4.069e-01   6.781e-02   0.000e+00
   4.641e-01   1.059e-02   0.000e+00
   4.747e-01   1.446e-02   0.000e+00
   4.641e-01   1.059e-02   0.000e+00
   4.747e-01   1.446e-02   0.000e+00
   4.747e-01   0.000e+00   0.000e+00
   4.069e-01   1.356e-01   0.000e+00
   4.069e-01   6.781e-02   0.000e+00
   4.747e-01   6.781e-02   0.000e+00
   5.425e-01   4.379e-02   0.000e+00
   5.584e-01   5.191e-02   0.000e+00
   5.425e-01   6.781e-02   0.000e+00
   5.425e-01   0.000e+00   0.000e+00
   6.103e-01   0.000e+00   0.000e+00
   5.425e-01   4.379e-02   0.000e+00
   5.584e-01   5.191e-02   0.000e+00
   6.781e-01   0.000e+00   0.000e+00
   6.103e-01   6.781e-02   0.000e+00
   6.103e-01   0.000e+00   0.000e+00
   5.584e-01   5.191e-02   0.000e+00
   5.850e-01   6.781e-02   0.000e+00
   5.425e-01   6.781e-02   0.000e+00
   6.103e-01   6.781e-02   0.000e+00
   5.584e-01   5.191e-02   0.000e+00
   5.850e-01   6.781e-02   0.000e+00
   6.103e-01   0.000e+00   0.000e+00
   5.425e-01   1.356e-01   0.000e+00
   5.425e-01   6.781e-02   0.000e+00
   5.850e-01   6.781e-02   0.000e+00
   6.010e-01   7.711e-02   0.000e+00
   5.850e-01   6.781e-02   0.000e+00
   6.010e-01   7.711e-02   0.000e+00
   6.103e-01   6.781e-02   0.000e+00
   6.781e-01   0.000e+00   0.000e+00
   8.137e-01   0.000e+00   0.000e+00
   6.781e-01   1.356e-01   0.000e+00
   8.137e-01   0.000e+00   0.000e+00
   9.494e-01  -0.000e+00   0.000e+00
   8.137e-01   1.356e-01   0.000e+00
   9.494e-01  -0.000e+00   0.000e+00
   1.085e+00   0.000e+00   0.000e+00
   9.494e-01   1.356e-01   0.000e+00
  -1.085e+00   1.356e-01   0.000e+00
  -9.494e-01   1.356e-01   0.000e+00
  -1.085e+00   2.712e-01   0.000e+00
  -9.494e-01   1.356e-01   0.000e+00
  -8.137e-01   1.356e-01   0.000e+00
  -9.494e-01   2.712e-01   0.000e+00
  -8.137e-01   1.356e-01   0.000e+00
  -6.781e-01   1.356e-01   0.000e+00
  -8.137e-01   2.712e-01   0.000e+00
  -6.781e-01   1.356e-01   0.000e+00
  -6.103e-01   1.356e-01   0.000e+00
  -6.781e-01   2.034e-01   0.000e+00
  -5.425e-01   1.356e-01   0.000e+00
  -6.103e-01   2.034e-01   0.000e+00
  -5.795e-01   1.356e-01   0.000e+00
  -6.103e-01   1.827e-01   0.000e+00
  -5.795e-01   1.356e-01   0.000e+00
  -6.103e-01   1.827e-01   0.000e+00
  -6.103e-01   1.356e-01   0.000e+00
  -6.103e-01   2.034e-01   0.000e+00
  -6.103e-01   1.827e-01   0.000e+00
  -6.207e-01   2.034e-01   0.000e+00
  -6.103e-01   1.827e-01   0.000e+00
  -6.207e-01   2.034e-01   0.000e+00
  -6.781e-01   2.034e-01   0.000e+00
  -6.103e-01   1.356e-01   0.000e+00
  -6.207e-01   2.034e-01   0.000e+00
  -6.204e-01   2.135e-01   0.000e+00
  -6.103e-01   2.034e-01   0.000e+00
  -6.781e-01   2.712e-01   0.000e+00
  -6.781e-01   2.034e-01   0.000e+00
  -6.207e-01   2.034e-01   0.000e+00
  -6.204e-01   2.135e-01   0.000e+00
  -5.425e-01   1.356e-01   0.000e+00
  -4.069e-01   1.356e-01   0.000e+00
  -5.425e-01   2.712e-01   0.000e+00
  -4.069e-01   1.356e-01   0.000e+00
  -2.712e-01   1.356e-01   0.000e+00
  -4.069e-01   2.712e-01   0.000e+00
  -2.712e-01   1.356e-01   0.000e+00
  -1.356e-01   1.356e-01   0.000e+00
  -2.712e-01   2.712e-01   0.000e+00
  -1.356e-01   1.356e-01   0.000e+00
   0.000e+00   1.356e-01   0.000e+00
  -1.356e-01   2.712e-01   0.000e+00
   0.000e+00   1.356e-01   0.000e+00
   1.356e-01   1.356e-01   0.000e+00
   0.000e+00   2.712e-01   0.000e+00
   1.356e-01   1.356e-01   0.000e+00
   2.712e-01   1.356e-01   0.000e+00
   1.356e-01   2.712e-01   0.000e+00
   2.712e-01   1.356e-01   0.000e+00
   4.069e-01   1.356e-01   0.000e+00
   2.712e-01   2.712e-01   0.000e+00
   4.069e-01   1.356e-01   0.000e+00
   5.425e-01   1.356e-01   0.000e+00
   4.069e-01   2.712e-01   0.000e+00
   5.425e-01   1.356e-01   0.000e+00
   6.103e-01   1.356e-01   0.000e+00
   5.425e-01   2.034e-01   0.000e+00
   6.739e-01   1.398e-01   0.000e+00
   6.697e-01   1.356e-01   0.000e+00
   6.103e-01   2.034e-01   0.000e+00
   6.103e-01   1.356e-01   0.000e+00
   6.781e-01   1.356e-01   0.000e+00
   6.739e-01   1.398e-01   0.000e+00
   6.697e-01   1.356e-01   0.000e+00
   6.103e-01   2.034e-01   0.000e+00
   5.425e-01   2.034e-01   0.000e+00
   6.103e-01   1.356e-01   0.000e+00
   5.425e-01   2.712e-01   0.000e+00
   5.425e-01   2.034e-01   0.000e+00
   6.103e-01   2.034e-01   0.000e+00
   6.781e-01   1.467e-01   0.000e+00
   7.007e-01   1.808e-01   0.000e+00
   6.781e-01   2.034e-01   0.000e+00
   6.781e-01   1.356e-01   0.000e+00
   7.459e-01   1.356e-01   0.000e+00
   6.781e-01   1.467e-01   0.000e+00
   7.007e-01   1.808e-01   0.000e+00
   8.137e-01   1.356e-01   0.000e+00
   7.459e-01   2.034e-01   0.000e+00
   7.459e-01   1.356e-01   0.000e+00
   7.007e-01   1.808e-01   0.000e+00
   7.099e-01   2.034e-01   0.000e+00
   6.781e-01   2.034e-01   0.000e+00
   7.459e-01   2.034e-01   0.000e+00
   7.007e-01   1.808e-01   0.000e+00
   7.099e-01   2.034e-01   0.000e+00
   7.459e-01   1.356e-01   0.000e+00
   6.781e-01   2.712e-01   0.000e+00
   6.781e-01   2.034e-01   0.000e+00
   7.099e-01   2.034e-01   0.000e+00
   7.062e-01   2.432e-01   0.000e+00
   7.099e-01   2.034e-01   0.000e+00
   7.062e-01   2.432e-01   0.000e+00
   7.459e-01   2.034e-01   0.000e+00
   8.137e-01   1.356e-01   0.000e+00
   9.494e-01   1.356e-01   0.000e+00
   8.137e-01   2.712e-01   0.000e+00
   9.494e-01   1.356e-01   0.000e+00
   1.085e+00   1.356e-01   0.000e+00
   9.494e-01   2.712e-01   0.000e+00
  -1.085e+00   2.712e-01   0.000e+00
  -9.494e-01   2.712e-01   0.000e+00
  -1.085e+00   4.069e-01   0.000e+00
  -9.494e-01   2.712e-01   0.000e+00
  -8.137e-01   2.712e-01   0.000e+00
  -9.494e-01   4.069e-01   0.000e+00
  -8.137e-01   2.712e-01   0.000e+00
  -6.781e-01   2.712e-01   0.000e+00
  -8.137e-01   4.069e-01   0.000e+00
  -6.167e-01   2.712e-01   0.000e+00
  -6.146e-01   2.756e-01   0.000e+00
  -6.103e-01   2.712e-01   0.000e+00
  -6.781e-01   2.712e-01   0.000e+00
  -6.167e-01   2.712e-01   0.000e+00
  -6.146e-01   2.756e-01   0.000e+00
  -6.781e-01   3.391e-01   0.000e+00
  -5.425e-01   2.712e-01   0.000e+00
  -5.820e-01   3.108e-01   0.000e+00
  -6.103e-01   2.802e-01   0.000e+00
  -6.103e-01   2.712e-01   0.000e+00
  -5.820e-01   3.108e-01   0.000e+00
  -6.103e-01   2.802e-01   0.000e+00
  -6.103e-01   3.391e-01   0.000e+00
  -6.146e-01   2.756e-01   0.000e+00
  -6.103e-01   2.802e-01   0.000e+00
  -6.103e-01   2.712e-01   0.000e+00
  -6.103e-01   3.391e-01   0.000e+00
  -6.781e-01   3.391e-01   0.000e+00
  -6.146e-01   2.756e-01   0.000e+00
  -6.103e-01   2.802e-01   0.000e+00
  -6.781e-01   4.069e-01   0.000e+00
  -6.781e-01   3.391e-01   0.000e+00
  -6.103e-01   3.391e-01   0.000e+00
  -5.425e-01   2.712e-01   0.000e+00
  -4.747e-01   2.712e-01   0.000e+00
  -5.425e-01   3.308e-01   0.000e+00
  -5.361e-01   3.327e-01   0.000e+00
  -5.425e-01   3.308e-01   0.000e+00
  -5.361e-01   3.327e-01   0.000e+00
  -5.425e-01   3.391e-01   0.000e+00
  -4.069e-01   2.712e-01   0.000e+00
  -4.747e-01   3.391e-01   0.000e+00
  -4.747e-01   2.712e-01   0.000e+00
  -4.747e-01   3.391e-01   0.000e+00
  -5.361e-01   3.327e-01   0.000e+00
  -5.036e-01   3.391e-01   0.000e+00
  -4.747e-01   2.712e-01   0.000e+00
  -5.361e-01   3.327e-01   0.000e+00
  -5.036e-01   3.391e-01   0.000e+00
  -5.425e-01   3.391e-01   0.000e+00
  -5.036e-01   3.391e-01   0.000e+00
  -4.796e-01   3.440e-01   0.000e+00
  -4.747e-01   3.391e-01   0.000e+00
  -5.425e-01   4.069e-01   0.000e+00
  -5.425e-01   3.391e-01   0.000e+00
  -5.036e-01   3.391e-01   0.000e+00
  -4.796e-01   3.440e-01   0.000e+00
  -4.069e-01   2.712e-01   0.000e+00
  -3.391e-01   2.712e-01   0.000e+00
  -4.069e-01   3.391e-01   0.000e+00
  -2.712e-01   2.712e-01   0.000e+00
  -3.333e-01   3.333e-01   0.000e+00
  -3.391e-01   3.348e-01   0.000e+00
  -3.391e-01   2.712e-01   0.000e+00
  -3.333e-01   3.333e-01   0.000e+00
  -3.391e-01   3.348e-01   0.000e+00
  -3.391e-01   3.391e-01   0.000e+00
  -3.391e-01   3.348e-01   0.000e+00
  -3.686e-01   3.391e-01   0.000e+00
  -4.069e-01   3.391e-01   0.000e+00
  -3.391e-01   2.712e-01   0.000e+00
  -3.391e-01   3.391e-01   0.000e+00
  -3.391e-01   3.348e-01   0.000e+00
  -3.686e-01   3.391e-01   0.000e+00
  -3.686e-01   3.391e-01   0.000e+00
  -4.069e-01   3.445e-01   0.000e+00
  -4.069e-01   3.391e-01   0.000e+00
  -4.069e-01   4.069e-01   0.000e+00
  -3.686e-01   3.391e-01   0.000e+00
  -4.069e-01   3.445e-01   0.000e+00
  -3.391e-01   3.391e-01   0.000e+00
  -2.712e-01   2.712e-01   0.000e+00
  -2.034e-01   2.712e-01   0.000e+00
  -2.712e-01   3.180e-01   0.000e+00
  -2.403e-01   3.081e-01   0.000e+00
  -2.712e-01   3.180e-01   0.000e+00
  -2.403e-01   3.081e-01   0.000e+00
  -2.712e-01   3.391e-01   0.000e+00
  -1.356e-01   2.712e-01   0.000e+00
  -1.524e-01   2.880e-01   0.000e+00
  -2.034e-01   2.965e-01   0.000e+00
  -2.034e-01   2.712e-01   0.000e+00
  -1.524e-01   2.880e-01   0.000e+00
  -2.034e-01   2.965e-01   0.000e+00
  -2.034e-01   3.391e-01   0.000e+00
  -2.403e-01   3.081e-01   0.000e+00
  -2.034e-01   2.965e-01   0.000e+00
  -2.034e-01   2.712e-01   0.000e+00
  -2.034e-01   3.391e-01   0.000e+00
  -2.712e-01   3.391e-01   0.000e+00
  -2.403e-01   3.081e-01   0.000e+00
  -2.034e-01   2.965e-01   0.000e+00
  -2.712e-01   4.069e-01   0.000e+00
  -2.712e-01   3.391e-01   0.000e+00
  -2.034e-01   3.391e-01   0.000e+00
  -1.356e-01   2.712e-01   0.000e+00
  -6.781e-02   2.712e-01   0.000e+00
  -1.356e-01   3.006e-01   0.000e+00
  -1.208e-01   3.242e-01   0.000e+00
  -1.356e-01   3.006e-01   0.000e+00
  -1.208e-01   3.242e-01   0.000e+00
  -1.356e-01   3.391e-01   0.000e+00
   0.000e+00   2.712e-01   0.000e+00
  -6.781e-02   3.391e-01   0.000e+00
  -6.781e-02   2.712e-01   0.000e+00
  -6.781e-02   3.391e-01   0.000e+00
  -1.208e-01   3.242e-01   0.000e+00
  -1.182e-01   3.391e-01   0.000e+00
  -6.781e-02   2.712e-01   0.000e+00
  -1.208e-01   3.242e-01   0.000e+00
  -1.182e-01   3.391e-01   0.000e+00
  -1.356e-01   3.391e-01   0.000e+00
  -1.182e-01   3.391e-01   0.000e+00
  -1.181e-01   3.893e-01   0.000e+00
  -6.781e-02   3.391e-01   0.000e+00
  -1.356e-01   4.069e-01   0.000e+00
  -1.356e-01   3.391e-01   0.000e+00
  -1.182e-01   3.391e-01   0.000e+00
  -1.181e-01   3.893e-01   0.000e+00
   0.000e+00   2.712e-01   0.000e+00
   1.356e-01   2.712e-01   0.000e+00
   0.000e+00   4.069e-01   0.000e+00
   1.356e-01   2.712e-01   0.000e+00
   2.712e-01   2.712e-01   0.000e+00
   1.356e-01   4.069e-01   0.000e+00
   2.712e-01   2.712e-01   0.000e+00
   3.391e-01   2.712e-01   0.000e+00
   2.712e-01   2.899e-01   0.000e+00
   3.086e-01   3.017e-01   0.000e+00
   2.712e-01   2.899e-01   0.000e+00
   3.086e-01   3.017e-01   0.000e+00
   2.712e-01   3.391e-01   0.000e+00
   4.069e-01   2.712e-01   0.000e+00
   3.604e-01   3.177e-01   0.000e+00
   3.391e-01   3.114e-01   0.000e+00
   3.391e-01   2.712e-01   0.000e+00
   3.604e-01   3.177e-01   0.000e+00
   3.391e-01   3.114e-01   0.000e+00
   3.391e-01   3.391e-01   0.000e+00
   3.086e-01   3.017e-01   0.000e+00
   3.391e-01   3.114e-01   0.000e+00
   3.391e-01   2.712e-01   0.000e+00
   3.391e-01   3.391e-01   0.000e+00
   2.712e-01   3.391e-01   0.000e+00
   3.086e-01   3.017e-01   0.000e+00
   3.391e-01   3.114e-01   0.000e+00
   2.712e-01   4.069e-01   0.000e+00
   2.712e-01   3.391e-01   0.000e+00
   3.391e-01   3.391e-01   0.000e+00
   4.069e-01   2.712e-01   0.000e+00
   4.747e-01   2.712e-01   0.000e+00
   4.069e-01   3.301e-01   0.000e+00
   4.143e-01   3.316e-01   0.000e+00
   4.069e-01   3.301e-01   0.000e+00
   4.143e-01   3.316e-01   0.000e+00
   4.069e-01   3.391e-01   0.000e+00
   5.425e-01   2.712e-01   0.000e+00
   4.747e-01   3.391e-01   0.000e+00
   4.747e-01   2.712e-01   0.000e+00
   4.747e-01   3.391e-01   0.000e+00
   4.143e-01   3.316e-01   0.000e+00
   4.564e-01   3.391e-01   0.000e+00
   4.747e-01   2.712e-01   0.000e+00
   4.143e-01   3.316e-01   0.000e+00
   4.564e-01   3.391e-01   0.000e+00
   4.069e-01   3.391e-01   0.000e+00
   4.564e-01   3.391e-01   0.000e+00
   4.719e-01   3.418e-01   0.000e+00
   4.747e-01   3.391e-01   0.000e+00
   4.069e-01   4.069e-01   0.000e+00
   4.069e-01   3.391e-01   0.000e+00
   4.564e-01   3.391e-01   0.000e+00
   4.719e-01   3.418e-01   0.000e+00
   5.425e-01   2.712e-01   0.000e+00
   6.103e-01   2.712e-01   0.000e+00
   5.425e-01   3.391e-01   0.000e+00
   6.781e-01   2.712e-01   0.000e+00
   6.144e-01   3.350e-01   0.000e+00
   6.103e-01   3.374e-01   0.000e+00
   6.103e-01   2.712e-01   0.000e+00
   6.144e-01   3.350e-01   0.000e+00
   6.103e-01   3.374e-01   0.000e+00
   6.103e-01   3.391e-01   0.000e+00
   6.103e-01   3.374e-01   0.000e+00
   5.976e-01   3.391e-01   0.000e+00
   5.425e-01   3.391e-01   0.000e+00
   6.103e-01   2.712e-01   0.000e+00
   6.103e-01   3.391e-01   0.000e+00
   6.103e-01   3.374e-01   0.000e+00
   5.976e-01   3.391e-01   0.000e+00
   5.976e-01   3.391e-01   0.000e+00
   5.425e-01   3.459e-01   0.000e+00
   5.425e-01   3.391e-01   0.000e+00
   5.425e-01   4.069e-01   0.000e+00
   5.976e-01   3.391e-01   0.000e+00
   5.425e-01   3.459e-01   0.000e+00
   6.103e-01   3.391e-01   0.000e+00
   6.781e-01   2.712e-01   0.000e+00
   7.051e-01   2.712e-01   0.000e+00
   6.781e-01   3.035e-01   0.000e+00
   7.051e-01   2.712e-01   0.000e+00
   6.781e-01   3.035e-01   0.000e+00
   7.459e-01   2.712e-01   0.000e+00
   6.781e-01   3.391e-01   0.000e+00
   8.137e-01   2.712e-01   0.000e+00
   7.459e-01   3.391e-01   0.000e+00
   7.459e-01   2.712e-01   0.000e+00
   7.459e-01   3.391e-01   0.000e+00
   6.781e-01   3.391e-01   0.000e+00
   7.459e-01   2.712e-01   0.000e+00
   6.781e-01   4.069e-01   0.000e+00
   6.781e-01   3.391e-01   0.000e+00
   7.459e-01   3.391e-01   0.000e+00
   8.137e-01   2.712e-01   0.000e+00
   9.494e-01   2.712e-01   0.000e+00
   8.137e-01   4.069e-01   0.000e+00
   9.494e-01   2.712e-01   0.000e+00
   1.085e+00   2.712e-01   0.000e+00
   9.494e-01   4.069e-01   0.000e+00
  -1.085e+00   4.069e-01   0.000e+00
  -9.494e-01   4.069e-01   0.000e+00
  -1.085e+00   5.425e-01   0.000e+00
  -9.494e-01   4.069e-01   0.000e+00
  -8.137e-01   4.069e-01   0.000e+00
  -9.494e-01   5.425e-01   0.000e+00
  -8.137e-01   4.069e-01   0.000e+00
  -6.781e-01   4.069e-01   0.000e+00
  -8.137e-01   5.425e-01   0.000e+00
  -6.781e-01   4.069e-01   0.000e+00
  -5.425e-01   4.069e-01   0.000e+00
  -6.781e-01   5.425e-01   0.000e+00
  -5.425e-01   4.069e-01   0.000e+00
  -4.069e-01   4.069e-01   0.000e+00
  -5.425e-01   5.425e-01   0.000e+00
  -4.069e-01   4.069e-01   0.000e+00
  -2.712e-01   4.069e-01   0.000e+00
  -4.069e-01   5.425e-01   0.000e+00
  -2.712e-01   4.069e-01   0.000e+00
  -1.356e-01   4.069e-01   0.000e+00
  -2.712e-01   5.425e-01   0.000e+00
  -1.180e-01   4.069e-01   0.000e+00
  -1.160e-01   4.550e-01   0.000e+00
  -6.781e-02   4.069e-01   0.000e+00
  -1.356e-01   4.069e-01   0.000e+00
  -1.180e-01   4.069e-01   0.000e+00
  -1.160e-01   4.550e-01   0.000e+00
  -1.356e-01   4.747e-01   0.000e+00
   0.000e+00   4.069e-01   0.000e+00
  -6.781e-02   4.747e-01   0.000e+00
  -6.781e-02   4.069e-01   0.000e+00
  -6.781e-02   4.747e-01   0.000e+00
  -1.160e-01   4.550e-01   0.000e+00
  -1.150e-01   4.747e-01   0.000e+00
  -6.781e-02   4.069e-01   0.000e+00
  -1.160e-01   4.550e-01   0.000e+00
  -1.150e-01   4.747e-01   0.000e+00
  -1.356e-01   4.747e-01   0.000e+00
  -1.150e-01   4.747e-01   0.000e+00
  -1.097e-01   5.166e-01   0.000e+00
  -6.781e-02   4.747e-01   0.000e+00
  -1.356e-01   5.425e-01   0.000e+00
  -1.356e-01   4.747e-01   0.000e+00
  -1.150e-01   4.747e-01   0.000e+00
  -1.097e-01   5.166e-01   0.000e+00
   0.000e+00   4.069e-01   0.000e+00
   1.356e-01   4.069e-01   0.000e+00
   0.000e+00   5.425e-01   0.000e+00
   1.356e-01   4.069e-01   0.000e+00
   2.034e-01   4.069e-01   0.000e+00
   1.356e-01   4.747e-01   0.000e+00
   2.045e-01   4.736e-01   0.000e+00
   2.075e-01   4.069e-01   0.000e+00
   2.034e-01   4.747e-01   0.000e+00
   2.034e-01   4.069e-01   0.000e+00
   2.712e-01   4.069e-01   0.000e+00
   2.045e-01   4.736e-01   0.000e+00
   2.075e-01   4.069e-01   0.000e+00
   2.034e-01   4.747e-01   0.000e+00
   1.356e-01   4.747e-01   0.000e+00
   2.034e-01   4.069e-01   0.000e+00
   1.356e-01   5.425e-01   0.000e+00
   1.356e-01   4.747e-01   0.000e+00
   2.034e-01   4.747e-01   0.000e+00
   2.712e-01   4.069e-01   0.000e+00
   4.069e-01   4.069e-01   0.000e+00
   2.712e-01   5.425e-01   0.000e+00
   4.069e-01   4.069e-01   0.000e+00
   5.425e-01   4.069e-01   0.000e+00
   4.069e-01   5.425e-01   0.000e+00
   5.425e-01   4.069e-01   0.000e+00
   6.781e-01   4.069e-01   0.000e+00
   5.425e-01   5.425e-01   0.000e+00
   6.781e-01   4.069e-01   0.000e+00
   8.137e-01   4.069e-01   0.000e+00
   6.781e-01   5.425e-01   0.000e+00
   8.137e-01   4.069e-01   0.000e+00
   9.494e-01   4.069e-01   0.000e+00
   8.137e-01   5.425e-01   0.000e+00
   9.494e-01   4.069e-01   0.000e+00
   1.085e+00   4.069e-01   0.000e+00
   9.494e-01   5.425e-01   0.000e+00
  -1.085e+00   5.425e-01   0.000e+00
  -9.494e-01   5.425e-01   0.000e+00
  -1.085e+00   6.781e-01   0.000e+00
  -9.494e-01   5.425e-01   0.000e+00
  -8.137e-01   5.425e-01   0.000e+00
  -9.494e-01   6.781e-01   0.000e+00
  -8.137e-01   5.425e-01   0.000e+00
  -6.781e-01   5.425e-01   0.000e+00
  -8.137e-01   6.781e-01   0.000e+00
  -6.781e-01   5.425e-01   0.000e+00
  -5.425e-01   5.425e-01   0.000e+00
  -6.781e-01   6.781e-01   0.000e+00
  -5.425e-01   5.425e-01   0.000e+00
  -4.069e-01   5.425e-01   0.000e+00
  -5.425e-01   6.781e-01   0.000e+00
  -4.069e-01   5.425e-01   0.000e+00
  -2.712e-01   5.425e-01   0.000e+00
  -4.069e-01   6.781e-01   0.000e+00
  -2.712e-01   5.425e-01   0.000e+00
  -1.356e-01   5.425e-01   0.000e+00
  -2.712e-01   6.781e-01   0.000e+00
  -1.060e-01   5.425e-01   0.000e+00
  -9.859e-02   5.733e-01   0.000e+00
  -6.781e-02   5.425e-01   0.000e+00
  -1.356e-01   5.425e-01   0.000e+00
  -1.060e-01   5.425e-01   0.000e+00
  -9.859e-02   5.733e-01   0.000e+00
  -1.356e-01   6.103e-01   0.000e+00
   0.000e+00   5.425e-01   0.000e+00
  -6.781e-02   6.103e-01   0.000e+00
  -6.781e-02   5.425e-01   0.000e+00
  -6.781e-02   6.103e-01   0.000e+00
  -9.859e-02   5.733e-01   0.000e+00
  -8.804e-02   6.103e-01   0.000e+00
  -6.781e-02   5.425e-01   0.000e+00
  -9.859e-02   5.733e-01   0.000e+00
  -8.804e-02   6.103e-01   0.000e+00
  -1.356e-01   6.103e-01   0.000e+00
  -8.804e-02   6.103e-01   0.000e+00
  -8.242e-02   6.249e-01   0.000e+00
  -6.781e-02   6.103e-01   0.000e+00
  -1.356e-01   6.781e-01   0.000e+00
  -1.356e-01   6.103e-01   0.000e+00
  -8.804e-02   6.103e-01   0.000e+00
  -8.242e-02   6.249e-01   0.000e+00
   0.000e+00   5.425e-01   0.000e+00
   1.356e-01   5.425e-01   0.000e+00
   0.000e+00   6.781e-01   0.000e+00
   1.356e-01   5.425e-01   0.000e+00
   1.954e-01   5.425e-01   0.000e+00
   1.922e-01   5.538e-01   0.000e+00
   1.356e-01   6.103e-01   0.000e+00
   1.954e-01   5.425e-01   0.000e+00
   1.922e-01   5.538e-01   0.000e+00
   2.034e-01   5.425e-01   0.000e+00
   2.712e-01   5.425e-01   0.000e+00
   2.034e-01   6.103e-01   0.000e+00
   2.034e-01   5.425e-01   0.000e+00
   1.922e-01   5.538e-01   0.000e+00
   1.774e-01   6.103e-01   0.000e+00
   1.356e-01   6.103e-01   0.000e+00
   2.034e-01   6.103e-01   0.000e+00
   1.922e-01   5.538e-01   0.000e+00
   1.774e-01   6.103e-01   0.000e+00
   2.034e-01   5.425e-01   0.000e+00
   1.356e-01   6.781e-01   0.000e+00
   1.356e-01   6.103e-01   0.000e+00
   1.774e-01   6.103e-01   0.000e+00
   1.522e-01   6.616e-01   0.000e+00
   1.774e-01   6.103e-01   0.000e+00
   1.522e-01   6.616e-01   0.000e+00
   2.034e-01   6.103e-01   0.000e+00
   2.712e-01   5.425e-01   0.000e+00
   4.069e-01   5.425e-01   0.000e+00
   2.712e-01   6.781e-01   0.000e+00
   4.069e-01   5.425e-01   0.000e+00
   5.425e-01   5.425e-01   0.000e+00
   4.069e-01   6.781e-01   0.000e+00
   5.425e-01   5.425e-01   0.000e+00
   6.781e-01   5.425e-01   0.000e+00
   5.425e-01   6.781e-01   0.000e+00
   6.781e-01   5.425e-01   0.000e+00
   8.137e-01   5.425e-01   0.000e+00
   6.781e-01   6.781e-01   0.000e+00
   8.137e-01   5.425e-01   0.000e+00
   9.494e-01   5.425e-01   0.000e+00
   8.137e-01   6.781e-01   0.000e+00
   9.494e-01   5.425e-01   0.000e+00
   1.085e+00   5.425e-01   0.000e+00
   9.494e-01   6.781e-01   0.000e+00
  -1.085e+00   6.781e-01   0.000e+00
  -9.494e-01   6.781e-01   0.000e+00
  -1.085e+00   8.137e-01   0.000e+00
  -9.494e-01   6.781e-01   0.000e+00
  -8.137e-01   6.781e-01   0.000e+00
  -9.494e-01   8.137e-01   0.000e+00
  -8.137e-01   6.781e-01   0.000e+00
  -6.781e-01   6.781e-01   0.000e+00
  -8.137e-01   8.137e-01   0.000e+00
  -6.781e-01   6.781e-01   0.000e+00
  -5.425e-01   6.781e-01   0.000e+00
  -6.781e-01   8.137e-01   0.000e+00
  -5.425e-01   6.781e-01   0.000e+00
  -4.069e-01   6.781e-01   0.000e+00
  -5.425e-01   8.137e-01   0.000e+00
  -4.069e-01   6.781e-01   0.000e+00
  -2.712e-01   6.781e-01   0.000e+00
  -4.069e-01   8.137e-01   0.000e+00
  -2.712e-01   6.781e-01   0.000e+00
  -1.356e-01   6.781e-01   0.000e+00
  -2.712e-01   8.137e-01   0.000e+00
  -1.356e-01   6.781e-01   0.000e+00
  -6.781e-02   6.781e-01   0.000e+00
  -1.356e-01   7.459e-01   0.000e+00
   0.000e+00   6.781e-01   0.000e+00
  -3.098e-02   7.091e-01   0.000e+00
  -5.498e-02   6.781e-01   0.000e+00
  -3.098e-02   7.091e-01   0.000e+00
  -5.498e-02   6.781e-01   0.000e+00
  -6.781e-02   7.459e-01   0.000e+00
  -6.781e-02   6.781e-01   0.000e+00
  -6.781e-02   7.459e-01   0.000e+00
  -1.356e-01   7.459e-01   0.000e+00
  -6.781e-02   6.781e-01   0.000e+00
  -1.356e-01   8.137e-01   0.000e+00
  -1.356e-01   7.459e-01   0.000e+00
  -6.781e-02   7.459e-01   0.000e+00
   0.000e+00   6.781e-01   0.000e+00
   6.781e-02   6.781e-01   0.000e+00
   0.000e+00   7.317e-01   0.000e+00
   1.137e-02   7.346e-01   0.000e+00
   0.000e+00   7.317e-01   0.000e+00
   1.137e-02   7.346e-01   0.000e+00
   0.000e+00   7.459e-01   0.000e+00
   1.356e-01   6.781e-01   0.000e+00
   9.131e-02   7.224e-01   0.000e+00
   6.781e-02   7.414e-01   0.000e+00
   6.781e-02   6.781e-01   0.000e+00
   9.131e-02   7.224e-01   0.000e+00
   6.781e-02   7.414e-01   0.000e+00
   6.781e-02   7.459e-01   0.000e+00
   1.137e-02   7.346e-01   0.000e+00
   6.781e-02   7.414e-01   0.000e+00
   6.781e-02   6.781e-01   0.000e+00
   6.781e-02   7.459e-01   0.000e+00
   0.000e+00   7.459e-01   0.000e+00
   1.137e-02   7.346e-01   0.000e+00
   6.781e-02   7.414e-01   0.000e+00
   0.000e+00   8.137e-01   0.000e+00
   0.000e+00   7.459e-01   0.000e+00
   6.781e-02   7.459e-01   0.000e+00
   1.356e-01   6.781e-01   0.000e+00
   1.448e-01   6.781e-01   0.000e+00
   1.356e-01   6.900e-01   0.000e+00
   1.448e-01   6.781e-01   0.000e+00
   1.356e-01   6.900e-01   0.000e+00
   2.034e-01   6.781e-01   0.000e+00
   1.356e-01   7.459e-01   0.000e+00
   2.712e-01   6.781e-01   0.000e+00
   2.034e-01   7.459e-01   0.000e+00
   2.034e-01   6.781e-01   0.000e+00
   2.034e-01   7.459e-01   0.000e+00
   1.356e-01   7.459e-01   0.000e+00
   2.034e-01   6.781e-01   0.000e+00
   1.356e-01   8.137e-01   0.000e+00
   1.356e-01   7.459e-01   0.000e+00
   2.034e-01   7.459e-01   0.000e+00
   2.712e-01   6.781e-01   0.000e+00
   4.069e-01   6.781e-01   0.000e+00
   2.712e-01   8.137e-01   0.000e+00
   4.069e-01   6.781e-01   0.000e+00
   5.425e-01   6.781e-01   0.000e+00
   4.069e-01   8.137e-01   0.000e+00
   5.425e-01   6.781e-01   0.000e+00
   6.781e-01   6.781e-01   0.000e+00
   5.425e-01   8.137e-01   0.000e+00
   6.781e-01   6.781e-01   0.000e+00
   8.137e-01   6.781e-01   0.000e+00
   6.781e-01   8.137e-01   0.000e+00
   8.137e-01   6.781e-01   0.000e+00
   9.494e-01   6.781e-01   0.000e+00
   8.137e-01   8.137e-01   0.000e+00
   9.494e-01   6.781e-01   0.000e+00
   1.085e+00   6.781e-01   0.000e+00
   9.494e-01   8.137e-01   0.000e+00
  -1.085e+00   8.137e-01   0.000e+00
  -9.494e-01   8.137e-01   0.000e+00
  -1.085e+00   9.494e-01   0.000e+00
  -9.494e-01   8.137e-01   0.000e+00
  -8.137e-01   8.137e-01   0.000e+00
  -9.494e-01   9.494e-01   0.000e+00
  -8.137e-01   8.137e-01   0.000e+00
  -6.781e-01   8.137e-01   0.000e+00
  -8.137e-01   9.494e-01   0.000e+00
  -6.781e-01   8.137e-01   0.000e+00
  -5.425e-01   8.137e-01   0.000e+00
  -6.781e-01   9.494e-01   0.000e+00
  -5.425e-01   8.137e-01   0.000e+00
  -4.069e-01   8.137e-01   0.000e+00
  -5.425e-01   9.494e-01   0.000e+00
  -4.069e-01   8.137e-01   0.000e+00
  -2.712e-01   8.137e-01   0.000e+00
  -4.069e-01   9.494e-01   0.000e+00
  -2.712e-01   8.137e-01   0.000e+00
  -1.356e-01   8.137e-01   0.000e+00
  -2.712e-01   9.494e-01   0.000e+00
  -1.356e-01   8.137e-01   0.000e+00
   0.000e+00   8.137e-01   0.000e+00
  -1.356e-01   9.494e-01   0.000e+00
   0.000e+00   8.137e-01   0.000e+00
   1.356e-01   8.137e-01   0.000e+00
   0.000e+00   9.494e-01   0.000e+00
   1.356e-01   8.137e-01   0.000e+00
   2.712e-01   8.137e-01   0.000e+00
   1.356e-01   9.494e-01   0.000e+00
   2.712e-01   8.137e-01   0.000e+00
   4.069e-01   8.137e-01   0.000e+00
   2.712e-01   9.494e-01   0.000e+00
   4.069e-01   8.137e-01   0.000e+00
   5.425e-01   8.137e-01   0.000e+00
   4.069e-01   9.494e-01   0.000e+00
   5.425e-01   8.137e-01   0.000e+00
   6.781e-01   8.137e-01   0.000e+00
   5.425e-01   9.494e-01   0.000e+00
   6.781e-01   8.137e-01   0.000e+00
   8.137e-01   8.137e-01   0.000e+00
   6.781e-01   9.494e-01   0.000e+00
   8.137e-01   8.137e-01   0.000e+00
   9.494e-01   8.137e-01   0.000e+00
   8.137e-01   9.494e-01   0.000e+00
   9.494e-01   8.137e-01   0.000e+00
   1.085e+00   8.137e-01   0.000e+00
   9.494e-01   9.494e-01   0.000e+00
  -1.085e+00   9.494e-01   0.000e+00
  -9.494e-01   9.494e-01   0.000e+00
  -1.085e+00   1.085e+00   0.000e+00
  -9.494e-01   9.494e-01   0.000e+00
  -8.137e-01   9.494e-01   0.000e+00
  -9.494e-01   1.085e+00   0.000e+00
  -8.137e-01   9.494e-01   0.000e+00
  -6.781e-01   9.494e-01   0.000e+00
  -8.137e-01   1.085e+00   0.000e+00
  -6.781e-01   9.494e-01   0.000e+00
  -5.425e-01   9.494e-01   0.000e+00
  -6.781e-01   1.085e+00   0.000e+00
  -5.425e-01   9.494e-01   0.000e+00
  -4.069e-01   9.494e-01   0.000e+00
  -5.425e-01   1.085e+00   0.000e+00
  -4.069e-01   9.494e-01   0.000e+00
  -2.712e-01   9.494e-01   0.000e+00
  -4.069e-01   1.085e+00   0.000e+00
  -2.712e-01   9.494e-01   0.000e+00
  -1.356e-01   9.494e-01   0.000e+00
  -2.712e-01   1.085e+00   0.000e+00
  -1.356e-01   9.494e-01   0.000e+00
   0.000e+00   9.494e-01   0.000e+00
  -1.356e-01   1.085e+00   0.000e+00
   0.000e+00   9.494e-01   0.000e+00
   1.356e-01   9.494e-01   0.000e+00
   0.000e+00   1.085e+00   0.000e+00
   1.356e-01   9.494e-01   0.000e+00
   2.712e-01   9.494e-01   0.000e+00
   1.356e-01   1.085e+00   0.000e+00
   2.712e-01   9.494e-01   0.000e+00
   4.069e-01   9.494e-01   0.000e+00
   2.712e-01   1.085e+00   0.000e+00
   4.069e-01   9.494e-01   0.000e+00
   5.425e-01   9.494e-01   0.000e+00
   4.069e-01   1.085e+00   0.000e+00
   5.425e-01   9.494e-01   0.000e+00
   6.781e-01   9.494e-01   0.000e+00
   5.425e-01   1.085e+00   0.000e+00
   6.781e-01   9.494e-01   0.000e+00
   8.137e-01   9.494e-01   0.000e+00
   6.781e-01   1.085e+00   0.000e+00
   8.137e-01   9.494e-01   0.000e+00
   9.494e-01   9.494e-01   0.000e+00
   8.137e-01   1.085e+00   0.000e+00
   9.494e-01   9.494e-01   0.000e+00
   1.085e+00   9.494e-01   0.000e+00
   9.494e-01   1.085e+00   0.000e+00
  -9.494e-01  -1.085e+00   0.000e+00
  -9.494e-01  -9.494e-01   0.000e+00
  -1.085e+00  -9.494e-01   0.000e+00
  -8.137e-01  -1.085e+00   0.000e+00
  -8.137e-01  -9.494e-01   0.000e+00
  -9.494e-01  -9.494e-01   0.000e+00
  -6.781e-01  -1.085e+00   0.000e+00
  -6.781e-01  -9.494e-01   0.000e+00
  -8.137e-01  -9.494e-01   0.000e+00
  -5.425e-01  -1.085e+00   0.000e+00
  -5.425e-01  -9.494e-01   0.000e+00
  -6.781e-01  -9.494e-01   0.000e+00
  -4.069e-01  -1.085e+00   0.000e+00
  -4.069e-01  -9.494e-01   0.000e+00
  -5.425e-01  -9.494e-01   0.000e+00
  -2.712e-01  -1.085e+00   0.000e+00
  -2.712e-01  -9.494e-01   0.000e+00
  -4.069e-01  -9.494e-01   0.000e+00
  -1.356e-01  -1.085e+00   0.000e+00
  -1.356e-01  -9.494e-01   0.000e+00
  -2.712e-01  -9.494e-01   0.000e+00
   0.000e+00  -1.085e+00   0.000e+00
   0.000e+00  -9.494e-01   0.000e+00
  -1.356e-01  -9.494e-01   0.000e+00
   1.356e-01  -1.085e+00   0.000e+00
   1.356e-01  -9.494e-01   0.000e+00
   0.000e+00  -9.494e-01   0.000e+00
   2.712e-01  -1.085e+00   0.000e+00
   2.712e-01  -9.494e-01   0.000e+00
   1.356e-01  -9.494e-01   0.000e+00
   4.069e-01  -1.085e+00   0.000e+00
   4.069e-01  -9.494e-01   0.000e+00
   2.712e-01  -9.494e-01   0.000e+00
   5.425e-01  -1.085e+00   0.000e+00
   5.425e-01  -9.494e-01   0.000e+00
   4.069e-01  -9.494e-01   0.000e+00
   6.781e-01  -1.085e+00   0.000e+00
   6.781e-01  -9.494e-01   0.000e+00
   5.425e-01  -9.494e-01   0.000e+00
   8.137e-01  -1.085e+00   0.000e+00
   8.137e-01  -9.494e-01   0.000e+00
   6.781e-01  -9.494e-01   0.000e+00
   9.494e-01  -1.085e+00   0.000e+00
   9.494e-01  -9.494e-01   0.000e+00
   8.137e-01  -9.494e-01   0.000e+00
   1.085e+00  -1.085e+00   0.000e+00
   1.085e+00  -9.494e-01   0.000e+00
   9.494e-01  -9.494e-01   0.000e+00
  -9.494e-01  -9.494e-01   0.000e+00
  -9.494e-01  -8.137e-01   0.000e+00
  -1.085e+00  -8.137e-01   0.000e+00
  -8.137e-01  -9.494e-01   0.000e+00
  -8.137e-01  -8.137e-01   0.000e+00
  -9.494e-01  -8.137e-01   0.000e+00
  -6.781e-01  -9.494e-01   0.000e+00
  -6.781e-01  -8.137e-01   0.000e+00
  -8.137e-01  -8.137e-01   0.000e+00
  -5.425e-01  -9.494e-01   0.000e+00
  -5.425e-01  -8.137e-01   0.000e+00
  -6.781e-01  -8.137e-01   0.000e+00
  -4.069e-01  -9.494e-01   0.000e+00
  -4.069e-01  -8.137e-01   0.000e+00
  -5.425e-01  -8.137e-01   0.000e+00
  -2.712e-01  -9.494e-01   0.000e+00
  -2.712e-01  -8.137e-01   0.000e+00
  -4.069e-01  -8.137e-01   0.000e+00
  -1.356e-01  -9.494e-01   0.000e+00
  -1.356e-01  -8.137e-01   0.000e+00
  -2.712e-01  -8.137e-01   0.000e+00
   0.000e+00  -9.494e-01   0.000e+00
   0.000e+00  -8.137e-01   0.000e+00
  -1.356e-01  -8.137e-01   0.000e+00
   1.356e-01  -9.494e-01   0.000e+00
   1.356e-01  -8.137e-01   0.000e+00
   0.000e+00  -8.137e-01   0.000e+00
   2.712e-01  -9.494e-01   0.000e+00
   2.712e-01  -8.137e-01   0.000e+00
   1.356e-01  -8.137e-01   0.000e+00
   4.069e-01  -9.494e-01   0.000e+00
   4.069e-01  -8.137e-01   0.000e+00
   2.712e-01  -8.137e-01   0.000e+00
   5.425e-01  -9.494e-01   0.000e+00
   5.425e-01  -8.137e-01   0.000e+00
   4.069e-01  -8.137e-01   0.000e+00
   6.781e-01  -9.494e-01   0.000e+00
   6.781e-01  -8.137e-01   0.000e+00
   5.425e-01  -8.137e-01   0.000e+00
   8.137e-01  -9.494e-01   0.000e+00
   8.137e-01  -8.137e-01   0.000e+00
   6.781e-01  -8.137e-01   0.000e+00
   9.494e-01  -9.494e-01   0.000e+00
   9.494e-01  -8.137e-01   0.000e+00
   8.137e-01  -8.137e-01   0.000e+00
   1.085e+00  -9.494e-01   0.000e+00
   1.085e+00  -8.137e-01   0.000e+00
   9.494e-01  -8.137e-01   0.000e+00
  -9.494e-01  -8.137e-01   0.000e+00
  -9.494e-01  -6.781e-01   0.000e+00
  -1.085e+00  -6.781e-01   0.000e+00
  -8.137e-01  -8.137e-01   0.000e+00
  -8.137e-01  -6.781e-01   0.000e+00
  -9.494e-01  -6.781e-01   0.000e+00
  -6.781e-01  -8.137e-01   0.000e+00
  -6.781e-01  -6.781e-01   0.000e+00
  -8.137e-01  -6.781e-01   0.000e+00
  -5.425e-01  -8.137e-01   0.000e+00
  -5.425e-01  -6.781e-01   0.000e+00
  -6.781e-01  -6.781e-01   0.000e+00
  -4.069e-01  -8.137e-01   0.000e+00
  -4.069e-01  -6.781e-01   0.000e+00
  -5.425e-01  -6.781e-01   0.000e+00
  -2.712e-01  -8.137e-01   0.000e+00
  -2.712e-01  -6.781e-01   0.000e+00
  -4.069e-01  -6.781e-01   0.000e+00
  -1.356e-01  -8.137e-01   0.000e+00
  -1.356e-01  -6.781e-01   0.000e+00
  -2.712e-01  -6.781e-01   0.000e+00
   0.000e+00  -8.137e-01   0.000e+00
   0.000e+00  -6.781e-01   0.000e+00
  -1.356e-01  -6.781e-01   0.000e+00
   1.356e-01  -8.137e-01   0.000e+00
   1.356e-01  -6.781e-01   0.000e+00
   0.000e+00  -6.781e-01   0.000e+00
   2.712e-01  -8.137e-01   0.000e+00
   2.712e-01  -6.781e-01   0.000e+00
   1.356e-01  -6.781e-01   0.000e+00
   4.069e-01  -8.137e-01   0.000e+00
   4.069e-01  -6.781e-01   0.000e+00
   2.712e-01  -6.781e-01   0.000e+00
   5.425e-01  -8.137e-01   0.000e+00
   5.425e-01  -6.781e-01   0.000e+00
   4.069e-01  -6.781e-01   0.000e+00
   6.781e-01  -8.137e-01   0.000e+00
   6.781e-01  -6.781e-01   0.000e+00
   5.425e-01  -6.781e-01   0.000e+00
   8.137e-01  -8.137e-01   0.000e+00
   8.137e-01  -6.781e-01   0.000e+00
   6.781e-01  -6.781e-01   0.000e+00
   9.494e-01  -8.137e-01   0.000e+00
   9.494e-01  -6.781e-01   0.000e+00
   8.137e-01  -6.781e-01   0.000e+00
   1.085e+00  -8.137e-01   0.000e+00
   1.085e+00  -6.781e-01   0.000e+00
   9.494e-01  -6.781e-01   0.000e+00
  -9.494e-01  -6.781e-01   0.000e+00
  -9.494e-01  -5.425e-01   0.000e+00
  -1.085e+00  -5.425e-01   0.000e+00
  -8.137e-01  -6.781e-01   0.000e+00
  -8.137e-01  -5.425e-01   0.000e+00
  -9.494e-01  -5.425e-01   0.000e+00
  -6.781e-01  -6.781e-01   0.000e+00
  -6.781e-01  -5.425e-01   0.000e+00
  -8.137e-01  -5.425e-01   0.000e+00
  -5.425e-01  -6.781e-01   0.000e+00
  -5.425e-01  -5.425e-01   0.000e+00
  -6.781e-01  -5.425e-01   0.000e+00
  -4.069e-01  -6.781e-01   0.000e+00
  -4.069e-01  -5.425e-01   0.000e+00
  -5.425e-01  -5.425e-01   0.000e+00
  -2.712e-01  -6.781e-01   0.000e+00
  -2.712e-01  -5.425e-01   0.000e+00
  -4.069e-01  -5.425e-01   0.000e+00
  -1.356e-01  -6.781e-01   0.000e+00
  -1.356e-01  -5.425e-01   0.000e+00
  -2.712e-01  -5.425e-01   0.000e+00
   0.000e+00  -6.781e-01   0.000e+00
   0.000e+00  -5.425e-01   0.000e+00
  -1.356e-01  -5.425e-01   0.000e+00
   1.356e-01  -6.781e-01   0.000e+00
   1.356e-01  -5.425e-01   0.000e+00
   0.000e+00  -5.425e-01   0.000e+00
   2.712e-01  -6.781e-01   0.000e+00
   2.712e-01  -5.425e-01   0.000e+00
   1.356e-01  -5.425e-01   0.000e+00
   4.069e-01  -6.781e-01   0.000e+00
   4.069e-01  -5.425e-01   0.000e+00
   2.712e-01  -5.425e-01   0.000e+00
   5.425e-01  -6.781e-01   0.000e+00
   5.425e-01  -5.425e-01   0.000e+00
   4.069e-01  -5.425e-01   0.000e+00
   6.781e-01  -6.781e-01   0.000e+00
   6.781e-01  -5.425e-01   0.000e+00
   5.425e-01  -5.425e-01   0.000e+00
   8.137e-01  -6.781e-01   0.000e+00
   8.137e-01  -5.425e-01   0.000e+00
   6.781e-01  -5.425e-01   0.000e+00
   9.494e-01  -6.781e-01   0.000e+00
   9.494e-01  -5.425e-01   0.000e+00
   8.137e-01  -5.425e-01   0.000e+00
   1.085e+00  -6.781e-01   0.000e+00
   1.085e+00  -5.425e-01   0.000e+00
   9.494e-01  -5.425e-01   0.000e+00
  -9.494e-01  -5.425e-01   0.000e+00
  -9.494e-01  -4.069e-01   0.000e+00
  -1.085e+00  -4.069e-01   0.000e+00
  -8.137e-01  -5.425e-01   0.000e+00
  -8.137e-01  -4.069e-01   0.000e+00
  -9.494e-01  -4.069e-01   0.000e+00
  -6.781e-01  -5.425e-01   0.000e+00
  -6.781e-01  -4.069e-01   0.000e+00
  -8.137e-01  -4.069e-01   0.000e+00
  -5.425e-01  -5.425e-01   0.000e+00
  -5.425e-01  -4.069e-01   0.000e+00
  -6.781e-01  -4.069e-01   0.000e+00
  -4.069e-01  -5.425e-01   0.000e+00
  -4.069e-01  -4.747e-01   0.000e+00
  -4.747e-01  -4.747e-01   0.000e+00
  -4.069e-01  -4.069e-01   0.000e+00
  -4.087e-01  -4.069e-01   0.000e+00
  -4.069e-01  -4.228e-01   0.000e+00
  -4.087e-01  -4.069e-01   0.000e+00
  -4.069e-01  -4.228e-01   0.000e+00
  -4.747e-01  -4.069e-01   0.000e+00
  -4.069e-01  -4.747e-01   0.000e+00
  -4.747e-01  -4.069e-01   0.000e+00
  -4.747e-01  -4.747e-01   0.000e+00
  -4.069e-01  -4.747e-01   0.000e+00
  -5.425e-01  -4.069e-01   0.000e+00
  -4.747e-01  -4.747e-01   0.000e+00
  -4.747e-01  -4.069e-01   0.000e+00
  -2.712e-01  -5.345e-01   0.000e+00
  -2.798e-01  -5.340e-01   0.000e+00
  -2.712e-01  -4.747e-01   0.000e+00
  -3.391e-01  -4.747e-01   0.000e+00
  -2.712e-01  -5.425e-01   0.000e+00
  -2.712e-01  -5.345e-01   0.000e+00
  -2.798e-01  -5.340e-01   0.000e+00
  -2.712e-01  -4.069e-01   0.000e+00
  -3.391e-01  -4.069e-01   0.000e+00
  -2.712e-01  -4.747e-01   0.000e+00
  -3.391e-01  -4.069e-01   0.000e+00
  -3.391e-01  -4.747e-01   0.000e+00
  -2.712e-01  -4.747e-01   0.000e+00
  -4.069e-01  -4.069e-01   0.000e+00
  -3.391e-01  -4.747e-01   0.000e+00
  -3.391e-01  -4.069e-01   0.000e+00
  -1.844e-01  -4.937e-01   0.000e+00
  -1.596e-01  -4.747e-01   0.000e+00
  -2.034e-01  -4.747e-01   0.000e+00
  -1.356e-01  -5.425e-01   0.000e+00
  -1.356e-01  -4.747e-01   0.000e+00
  -1.844e-01  -4.937e-01   0.000e+00
  -1.596e-01  -4.747e-01   0.000e+00
  -1.356e-01  -4.069e-01   0.000e+00
  -2.034e-01  -4.069e-01   0.000e+00
  -1.356e-01  -4.550e-01   0.000e+00
  -1.459e-01  -4.644e-01   0.000e+00
  -1.356e-01  -4.550e-01   0.000e+00
  -1.459e-01  -4.644e-01   0.000e+00
  -1.356e-01  -4.747e-01   0.000e+00
  -2.034e-01  -4.069e-01   0.000e+00
  -2.034e-01  -4.747e-01   0.000e+00
  -1.596e-01  -4.747e-01   0.000e+00
  -1.459e-01  -4.644e-01   0.000e+00
  -1.596e-01  -4.747e-01   0.000e+00
  -1.459e-01  -4.644e-01   0.000e+00
  -1.356e-01  -4.747e-01   0.000e+00
  -2.712e-01  -4.069e-01   0.000e+00
  -2.034e-01  -4.747e-01   0.000e+00
  -2.034e-01  -4.069e-01   0.000e+00
   0.000e+00  -5.425e-01   0.000e+00
   0.000e+00  -4.747e-01   0.000e+00
  -6.781e-02  -4.747e-01   0.000e+00
   0.000e+00  -4.069e-01   0.000e+00
  -6.781e-02  -4.069e-01   0.000e+00
   0.000e+00  -4.747e-01   0.000e+00
  -6.781e-02  -4.069e-01   0.000e+00
  -6.781e-02  -4.747e-01   0.000e+00
   0.000e+00  -4.747e-01   0.000e+00
  -1.356e-01  -4.069e-01   0.000e+00
  -1.107e-01  -4.318e-01   0.000e+00
  -8.780e-02  -4.069e-01   0.000e+00
  -1.107e-01  -4.318e-01   0.000e+00
  -8.780e-02  -4.069e-01   0.000e+00
  -6.781e-02  -4.747e-01   0.000e+00
  -6.781e-02  -4.069e-01   0.000e+00
   1.356e-01  -5.425e-01   0.000e+00
   1.356e-01  -4.069e-01   0.000e+00
   0.000e+00  -4.069e-01   0.000e+00
   2.712e-01  -4.917e-01   0.000e+00
   2.488e-01  -4.747e-01   0.000e+00
   2.712e-01  -4.747e-01   0.000e+00
   2.712e-01  -5.425e-01   0.000e+00
   2.712e-01  -4.917e-01   0.000e+00
   2.488e-01  -4.747e-01   0.000e+00
   2.034e-01  -4.747e-01   0.000e+00
   2.712e-01  -4.069e-01   0.000e+00
   2.034e-01  -4.069e-01   0.000e+00
   2.712e-01  -4.747e-01   0.000e+00
   2.034e-01  -4.069e-01   0.000e+00
   2.488e-01  -4.747e-01   0.000e+00
   2.034e-01  -4.344e-01   0.000e+00
   2.712e-01  -4.747e-01   0.000e+00
   2.488e-01  -4.747e-01   0.000e+00
   2.034e-01  -4.344e-01   0.000e+00
   2.034e-01  -4.747e-01   0.000e+00
   2.034e-01  -4.344e-01   0.000e+00
   1.773e-01  -4.069e-01   0.000e+00
   2.034e-01  -4.069e-01   0.000e+00
   1.356e-01  -4.069e-01   0.000e+00
   2.034e-01  -4.747e-01   0.000e+00
   2.034e-01  -4.344e-01   0.000e+00
   1.773e-01  -4.069e-01   0.000e+00
   4.069e-01  -5.389e-01   0.000e+00
   4.023e-01  -5.379e-01   0.000e+00
   4.069e-01  -4.747e-01   0.000e+00
   3.391e-01  -4.747e-01   0.000e+00
   4.069e-01  -5.425e-01   0.000e+00
   4.069e-01  -5.389e-01   0.000e+00
   4.023e-01  -5.379e-01   0.000e+00
   4.069e-01  -4.069e-01   0.000e+00
   3.391e-01  -4.069e-01   0.000e+00
   4.069e-01  -4.747e-01   0.000e+00
   3.391e-01  -4.069e-01   0.000e+00
   3.391e-01  -4.747e-01   0.000e+00
   4.069e-01  -4.747e-01   0.000e+00
   2.712e-01  -4.069e-01   0.000e+00
   3.391e-01  -4.747e-01   0.000e+00
   3.391e-01  -4.069e-01   0.000e+00
   4.851e-01  -4.851e-01   0.000e+00
   4.896e-01  -4.747e-01   0.000e+00
   4.747e-01  -4.747e-01   0.000e+00
   5.425e-01  -5.425e-01   0.000e+00
   5.425e-01  -4.747e-01   0.000e+00
   4.851e-01  -4.851e-01   0.000e+00
   4.896e-01  -4.747e-01   0.000e+00
   4.982e-01  -4.069e-01   0.000e+00
   4.962e-01  -4.284e-01   0.000e+00
   4.747e-01  -4.069e-01   0.000e+00
   5.425e-01  -4.069e-01   0.000e+00
   4.982e-01  -4.069e-01   0.000e+00
   4.962e-01  -4.284e-01   0.000e+00
   5.425e-01  -4.747e-01   0.000e+00
   4.747e-01  -4.069e-01   0.000e+00
   4.747e-01  -4.747e-01   0.000e+00
   4.896e-01  -4.747e-01   0.000e+00
   4.962e-01  -4.284e-01   0.000e+00
   4.896e-01  -4.747e-01   0.000e+00
   4.962e-01  -4.284e-01   0.000e+00
   5.425e-01  -4.747e-01   0.000e+00
   4.069e-01  -4.069e-01   0.000e+00
   4.747e-01  -4.747e-01   0.000e+00
   4.747e-01  -4.069e-01   0.000e+00
   6.781e-01  -5.425e-01   0.000e+00
   6.781e-01  -4.069e-01   0.000e+00
   5.425e-01  -4.069e-01   0.000e+00
   8.137e-01  -5.425e-01   0.000e+00
   8.137e-01  -4.069e-01   0.000e+00
   6.781e-01  -4.069e-01   0.000e+00
   9.494e-01  -5.425e-01   0.000e+00
   9.494e-01  -4.069e-01   0.000e+00
   8.137e-01  -4.069e-01   0.000e+00
   1.085e+00  -5.425e-01   0.000e+00
   1.085e+00  -4.069e-01   0.000e+00
   9.494e-01  -4.069e-01   0.000e+00
  -9.494e-01  -4.069e-01   0.000e+00
  -9.494e-01  -2.712e-01   0.000e+00
  -1.085e+00  -2.712e-01   0.000e+00
  -8.137e-01  -4.069e-01   0.000e+00
  -8.137e-01  -2.712e-01   0.000e+00
  -9.494e-01  -2.712e-01   0.000e+00
  -6.781e-01  -4.069e-01   0.000e+00
  -6.781e-01  -2.712e-01   0.000e+00
  -8.137e-01  -2.712e-01   0.000e+00
  -5.425e-01  -4.069e-01   0.000e+00
  -5.425e-01  -2.712e-01   0.000e+00
  -6.781e-01  -2.712e-01   0.000e+00
  -4.069e-01  -4.069e-01   0.000e+00
  -4.069e-01  -3.963e-01   0.000e+00
  -4.085e-01  -4.053e-01   0.000e+00
  -4.069e-01  -3.963e-01   0.000e+00
  -4.085e-01  -4.053e-01   0.000e+00
  -4.069e-01  -3.391e-01   0.000e+00
  -4.747e-01  -3.391e-01   0.000e+00
  -4.069e-01  -2.712e-01   0.000e+00
  -4.747e-01  -2.712e-01   0.000e+00
  -4.069e-01  -3.391e-01   0.000e+00
  -4.747e-01  -2.712e-01   0.000e+00
  -4.747e-01  -3.391e-01   0.000e+00
  -4.069e-01  -3.391e-01   0.000e+00
  -5.425e-01  -2.712e-01   0.000e+00
  -4.747e-01  -3.391e-01   0.000e+00
  -4.747e-01  -2.712e-01   0.000e+00
  -2.712e-01  -4.069e-01   0.000e+00
  -2.712e-01  -3.391e-01   0.000e+00
  -3.391e-01  -3.391e-01   0.000e+00
  -2.712e-01  -2.712e-01   0.000e+00
  -3.391e-01  -2.712e-01   0.000e+00
  -2.712e-01  -3.391e-01   0.000e+00
  -3.391e-01  -2.712e-01   0.000e+00
  -3.391e-01  -3.391e-01   0.000e+00
  -2.712e-01  -3.391e-01   0.000e+00
  -3.814e-01  -2.967e-01   0.000e+00
  -3.705e-01  -2.712e-01   0.000e+00
  -3.391e-01  -3.391e-01   0.000e+00
  -3.391e-01  -2.712e-01   0.000e+00
  -4.069e-01  -2.712e-01   0.000e+00
  -3.814e-01  -2.967e-01   0.000e+00
  -3.705e-01  -2.712e-01   0.000e+00
  -1.356e-01  -4.069e-01   0.000e+00
  -1.356e-01  -2.712e-01   0.000e+00
  -2.712e-01  -2.712e-01   0.000e+00
  -4.789e-02  -3.590e-01   0.000e+00
  -3.305e-02  -3.391e-01   0.000e+00
  -6.781e-02  -3.391e-01   0.000e+00
   0.000e+00  -4.069e-01   0.000e+00
   0.000e+00  -3.391e-01   0.000e+00
  -4.789e-02  -3.590e-01   0.000e+00
  -3.305e-02  -3.391e-01   0.000e+00
   0.000e+00  -2.712e-01   0.000e+00
  -6.781e-02  -2.712e-01   0.000e+00
   0.000e+00  -2.945e-01   0.000e+00
  -1.903e-02  -3.200e-01   0.000e+00
   0.000e+00  -2.945e-01   0.000e+00
  -1.903e-02  -3.200e-01   0.000e+00
   0.000e+00  -3.391e-01   0.000e+00
  -6.781e-02  -2.712e-01   0.000e+00
  -6.781e-02  -3.391e-01   0.000e+00
  -3.305e-02  -3.391e-01   0.000e+00
  -1.903e-02  -3.200e-01   0.000e+00
  -3.305e-02  -3.391e-01   0.000e+00
  -1.903e-02  -3.200e-01   0.000e+00
   0.000e+00  -3.391e-01   0.000e+00
  -1.356e-01  -2.712e-01   0.000e+00
  -6.781e-02  -3.391e-01   0.000e+00
  -6.781e-02  -2.712e-01   0.000e+00
   1.356e-01  -3.563e-01   0.000e+00
   1.224e-01  -3.391e-01   0.000e+00
   1.356e-01  -3.391e-01   0.000e+00
   1.356e-01  -4.069e-01   0.000e+00
   1.356e-01  -3.563e-01   0.000e+00
   1.224e-01  -3.391e-01   0.000e+00
   6.781e-02  -3.391e-01   0.000e+00
   1.356e-01  -2.712e-01   0.000e+00
   7.085e-02  -2.712e-01   0.000e+00
   8.015e-02  -2.836e-01   0.000e+00
   1.356e-01  -3.391e-01   0.000e+00
   7.085e-02  -2.712e-01   0.000e+00
   8.015e-02  -2.836e-01   0.000e+00
   6.781e-02  -2.712e-01   0.000e+00
   1.224e-01  -3.391e-01   0.000e+00
   8.015e-02  -2.836e-01   0.000e+00
   1.356e-01  -3.391e-01   0.000e+00
   6.781e-02  -2.712e-01   0.000e+00
   6.781e-02  -3.391e-01   0.000e+00
   1.224e-01  -3.391e-01   0.000e+00
   8.015e-02  -2.836e-01   0.000e+00
   0.000e+00  -2.712e-01   0.000e+00
   1.625e-02  -2.875e-01   0.000e+00
   5.791e-02  -2.712e-01   0.000e+00
   1.625e-02  -2.875e-01   0.000e+00
   5.791e-02  -2.712e-01   0.000e+00
   6.781e-02  -3.391e-01   0.000e+00
   6.781e-02  -2.712e-01   0.000e+00
   2.712e-01  -4.069e-01   0.000e+00
   2.712e-01  -2.712e-01   0.000e+00
   1.356e-01  -2.712e-01   0.000e+00
   4.069e-01  -4.069e-01   0.000e+00
   4.069e-01  -2.712e-01   0.000e+00
   2.712e-01  -2.712e-01   0.000e+00
   4.880e-01  -3.524e-01   0.000e+00
   4.859e-01  -3.391e-01   0.000e+00
   4.747e-01  -3.391e-01   0.000e+00
   5.425e-01  -4.069e-01   0.000e+00
   5.425e-01  -3.391e-01   0.000e+00
   4.880e-01  -3.524e-01   0.000e+00
   4.859e-01  -3.391e-01   0.000e+00
   5.425e-01  -2.712e-01   0.000e+00
   4.747e-01  -2.712e-01   0.000e+00
   5.425e-01  -3.391e-01   0.000e+00
   4.859e-01  -3.391e-01   0.000e+00
   4.747e-01  -3.086e-01   0.000e+00
   4.747e-01  -3.391e-01   0.000e+00
   4.747e-01  -2.712e-01   0.000e+00
   4.859e-01  -3.391e-01   0.000e+00
   4.747e-01  -3.086e-01   0.000e+00
   5.425e-01  -3.391e-01   0.000e+00
   4.069e-01  -2.712e-01   0.000e+00
   4.747e-01  -3.391e-01   0.000e+00
   4.747e-01  -3.086e-01   0.000e+00
   4.600e-01  -2.712e-01   0.000e+00
   4.747e-01  -3.086e-01   0.000e+00
   4.600e-01  -2.712e-01   0.000e+00
   4.747e-01  -2.712e-01   0.000e+00
   6.781e-01  -4.069e-01   0.000e+00
   6.781e-01  -2.712e-01   0.000e+00
   5.425e-01  -2.712e-01   0.000e+00
   8.137e-01  -4.069e-01   0.000e+00
   8.137e-01  -2.712e-01   0.000e+00
   6.781e-01  -2.712e-01   0.000e+00
   9.494e-01  -4.069e-01   0.000e+00
   9.494e-01  -2.712e-01   0.000e+00
   8.137e-01  -2.712e-01   0.000e+00
   1.085e+00  -4.069e-01   0.000e+00
   1.085e+00  -2.712e-01   0.000e+00
   9.494e-01  -2.712e-01   0.000e+00
  -9.494e-01  -2.712e-01   0.000e+00
  -9.494e-01  -1.356e-01   0.000e+00
  -1.085e+00  -1.356e-01   0.000e+00
  -8.137e-01  -2.712e-01   0.000e+00
  -8.137e-01  -1.356e-01   0.000e+00
  -9.494e-01  -1.356e-01   0.000e+00
  -6.781e-01  -2.712e-01   0.000e+00
  -6.781e-01  -1.356e-01   0.000e+00
  -8.137e-01  -1.356e-01   0.000e+00
  -5.425e-01  -2.712e-01   0.000e+00
  -5.425e-01  -1.356e-01   0.000e+00
  -6.781e-01  -1.356e-01   0.000e+00
  -4.069e-01  -2.712e-01   0.000e+00
  -4.069e-01  -1.356e-01   0.000e+00
  -5.425e-01  -1.356e-01   0.000e+00
  -2.712e-01  -2.712e-01   0.000e+00
  -2.712e-01  -2.034e-01   0.000e+00
  -3.357e-01  -2.068e-01   0.000e+00
  -3.336e-01  -2.034e-01   0.000e+00
  -3.357e-01  -2.068e-01   0.000e+00
  -3.336e-01  -2.034e-01   0.000e+00
  -3.391e-01  -2.034e-01   0.000e+00
  -2.712e-01  -1.356e-01   0.000e+00
  -2.875e-01  -1.356e-01   0.000e+00
  -3.089e-01  -1.657e-01   0.000e+00
  -2.712e-01  -2.034e-01   0.000e+00
  -2.875e-01  -1.356e-01   0.000e+00
  -3.089e-01  -1.657e-01   0.000e+00
  -3.391e-01  -1.356e-01   0.000e+00
  -3.336e-01  -2.034e-01   0.000e+00
  -3.089e-01  -1.657e-01   0.000e+00
  -2.712e-01  -2.034e-01   0.000e+00
  -3.391e-01  -1.356e-01   0.000e+00
  -3.391e-01  -2.034e-01   0.000e+00
  -3.336e-01  -2.034e-01   0.000e+00
  -3.089e-01  -1.657e-01   0.000e+00
  -4.069e-01  -1.356e-01   0.000e+00
  -3.391e-01  -2.034e-01   0.000e+00
  -3.391e-01  -1.356e-01   0.000e+00
  -1.356e-01  -2.712e-01   0.000e+00
  -1.356e-01  -1.356e-01   0.000e+00
  -2.712e-01  -1.356e-01   0.000e+00
   0.000e+00  -2.712e-01   0.000e+00
   0.000e+00  -1.356e-01   0.000e+00
  -1.356e-01  -1.356e-01   0.000e+00
   1.356e-01  -2.712e-01   0.000e+00
   1.356e-01  -1.356e-01   0.000e+00
   0.000e+00  -1.356e-01   0.000e+00
   2.712e-01  -2.712e-01   0.000e+00
   2.712e-01  -1.356e-01   0.000e+00
   1.356e-01  -1.356e-01   0.000e+00
   4.069e-01  -2.712e-01   0.000e+00
   4.069e-01  -2.034e-01   0.000e+00
   3.391e-01  -2.034e-01   0.000e+00
   3.770e-01  -1.356e-01   0.000e+00
   4.069e-01  -1.788e-01   0.000e+00
   3.391e-01  -1.356e-01   0.000e+00
   4.069e-01  -2.034e-01   0.000e+00
   4.069e-01  -1.356e-01   0.000e+00
   3.770e-01  -1.356e-01   0.000e+00
   4.069e-01  -1.788e-01   0.000e+00
   3.391e-01  -1.356e-01   0.000e+00
   3.391e-01  -2.034e-01   0.000e+00
   4.069e-01  -2.034e-01   0.000e+00
   2.712e-01  -1.356e-01   0.000e+00
   3.391e-01  -2.034e-01   0.000e+00
   3.391e-01  -1.356e-01   0.000e+00
   5.425e-01  -2.712e-01   0.000e+00
   5.425e-01  -1.356e-01   0.000e+00
   4.069e-01  -1.356e-01   0.000e+00
   6.781e-01  -2.712e-01   0.000e+00
   6.781e-01  -1.356e-01   0.000e+00
   5.425e-01  -1.356e-01   0.000e+00
   8.137e-01  -2.712e-01   0.000e+00
   8.137e-01  -1.356e-01   0.000e+00
   6.781e-01  -1.356e-01   0.000e+00
   9.494e-01  -2.712e-01   0.000e+00
   9.494e-01  -1.356e-01   0.000e+00
   8.137e-01  -1.356e-01   0.000e+00
   1.085e+00  -2.712e-01   0.000e+00
   1.085e+00  -1.356e-01   0.000e+00
   9.494e-01  -1.356e-01   0.000e+00
  -9.494e-01  -1.356e-01   0.000e+00
  -9.494e-01   0.000e+00   0.000e+00
  -1.085e+00   0.000e+00   0.000e+00
  -8.137e-01  -1.356e-01   0.000e+00
  -8.137e-01   0.000e+00   0.000e+00
  -9.494e-01   0.000e+00   0.000e+00
  -6.781e-01  -1.356e-01   0.000e+00
  -6.781e-01   0.000e+00   0.000e+00
  -8.137e-01   0.000e+00   0.000e+00
  -5.425e-01  -1.356e-01   0.000e+00
  -5.425e-01   0.000e+00   0.000e+00
  -6.781e-01   0.000e+00   0.000e+00
  -4.069e-01  -1.356e-01   0.000e+00
  -4.069e-01   0.000e+00   0.000e+00
  -5.425e-01   0.000e+00   0.000e+00
  -2.712e-01  -1.356e-01   0.000e+00
  -2.712e-01  -1.125e-01   0.000e+00
  -2.830e-01  -1.238e-01   0.000e+00
  -2.712e-01  -1.125e-01   0.000e+00
  -2.830e-01  -1.238e-01   0.000e+00
  -2.712e-01  -6.781e-02   0.000e+00
  -3.391e-01  -6.781e-02   0.000e+00
  -2.712e-01   0.000e+00   0.000e+00
  -3.391e-01   0.000e+00   0.000e+00
  -2.712e-01  -3.215e-02   0.000e+00
  -3.348e-01  -4.214e-03   0.000e+00
  -2.712e-01  -3.215e-02   0.000e+00
  -3.348e-01  -4.214e-03   0.000e+00
  -2.712e-01  -6.781e-02   0.000e+00
  -3.391e-01   0.000e+00   0.000e+00
  -3.348e-01  -4.214e-03   0.000e+00
  -3.391e-01  -1.780e-03   0.000e+00
  -3.348e-01  -4.214e-03   0.000e+00
  -3.391e-01  -1.780e-03   0.000e+00
  -3.391e-01  -6.781e-02   0.000e+00
  -2.712e-01  -6.781e-02   0.000e+00
  -3.391e-01  -1.780e-03   0.000e+00
  -3.441e-01   0.000e+00   0.000e+00
  -3.391e-01   0.000e+00   0.000e+00
  -4.069e-01   0.000e+00   0.000e+00
  -3.391e-01  -6.781e-02   0.000e+00
  -3.391e-01  -1.780e-03   0.000e+00
  -3.441e-01   0.000e+00   0.000e+00
  -1.356e-01  -1.356e-01   0.000e+00
  -1.356e-01   0.000e+00   0.000e+00
  -2.712e-01   0.000e+00   0.000e+00
   0.000e+00  -1.356e-01   0.000e+00
   0.000e+00   0.000e+00   0.000e+00
  -1.356e-01   0.000e+00   0.000e+00
   1.356e-01  -1.356e-01   0.000e+00
   1.356e-01   0.000e+00   0.000e+00
   0.000e+00   0.000e+00   0.000e+00
   2.712e-01  -1.356e-01   0.000e+00
   2.712e-01   0.000e+00   0.000e+00
   1.356e-01   0.000e+00   0.000e+00
   4.069e-01  -1.356e-01   0.000e+00
   4.069e-01  -6.781e-02   0.000e+00
   3.391e-01  -6.781e-02   0.000e+00
   4.069e-01  -0.000e+00   0.000e+00
   3.391e-01   0.000e+00   0.000e+00
   4.069e-01  -8.804e-03   0.000e+00
   3.633e-01  -2.427e-02   0.000e+00
   4.069e-01  -8.804e-03   0.000e+00
   3.633e-01  -2.427e-02   0.000e+00
   4.069e-01  -6.781e-02   0.000e+00
   3.391e-01   0.000e+00   0.000e+00
   3.633e-01  -2.427e-02   0.000e+00
   3.391e-01  -5.633e-02   0.000e+00
   3.633e-01  -2.427e-02   0.000e+00
   3.391e-01  -5.633e-02   0.000e+00
   3.391e-01  -6.781e-02   0.000e+00
   4.069e-01  -6.781e-02   0.000e+00
   2.712e-01   0.000e+00   0.000e+00
   3.391e-01  -5.633e-02   0.000e+00
   3.337e-01  -6.249e-02   0.000e+00
   3.391e-01   0.000e+00   0.000e+00
   3.391e-01  -5.633e-02   0.000e+00
   3.337e-01  -6.249e-02   0.000e+00
   3.391e-01  -6.781e-02   0.000e+00
   5.425e-01  -1.356e-01   0.000e+00
   5.425e-01  -6.781e-02   0.000e+00
   4.747e-01  -6.781e-02   0.000e+00
   5.425e-01   0.000e+00   0.000e+00
   4.747e-01   0.000e+00   0.000e+00
   5.425e-01  -6.781e-02   0.000e+00
   4.747e-01   0.000e+00   0.000e+00
   4.747e-01  -6.781e-02   0.000e+00
   5.425e-01  -6.781e-02   0.000e+00
   4.069e-01  -0.000e+00   0.000e+00
   4.135e-01  -6.628e-03   0.000e+00
   4.329e-01   0.000e+00   0.000e+00
   4.135e-01  -6.628e-03   0.000e+00
   4.329e-01   0.000e+00   0.000e+00
   4.747e-01  -6.781e-02   0.000e+00
   4.747e-01   0.000e+00   0.000e+00
   6.781e-01  -1.356e-01   0.000e+00
   6.781e-01   0.000e+00   0.000e+00
   5.425e-01   0.000e+00   0.000e+00
   8.137e-01  -1.356e-01   0.000e+00
   8.137e-01   0.000e+00   0.000e+00
   6.781e-01   0.000e+00   0.000e+00
   9.494e-01  -1.356e-01   0.000e+00
   9.494e-01  -0.000e+00   0.000e+00
   8.137e-01   0.000e+00   0.000e+00
   1.085e+00  -1.356e-01   0.000e+00
   1.085e+00   0.000e+00   0.000e+00
   9.494e-01  -0.000e+00   0.000e+00
  -9.494e-01   0.000e+00   0.000e+00
  -9.494e-01   1.356e-01   0.000e+00
  -1.085e+00   1.356e-01   0.000e+00
  -8.137e-01   0.000e+00   0.000e+00
  -8.137e-01   1.356e-01   0.000e+00
  -9.494e-01   1.356e-01   0.000e+00
  -6.781e-01   0.000e+00   0.000e+00
  -6.781e-01   1.356e-01   0.000e+00
  -8.137e-01   1.356e-01   0.000e+00
  -5.425e-01   0.000e+00   0.000e+00
  -5.425e-01   6.781e-02   0.000e+00
  -6.103e-01   6.781e-02   0.000e+00
  -5.425e-01   1.356e-01   0.000e+00
  -5.795e-01   1.356e-01   0.000e+00
  -5.425e-01   1.003e-01   0.000e+00
  -5.795e-01   1.356e-01   0.000e+00
  -5.425e-01   1.003e-01   0.000e+00
  -6.103e-01   1.356e-01   0.000e+00
  -5.425e-01   6.781e-02   0.000e+00
  -6.103e-01   1.356e-01   0.000e+00
  -6.103e-01   6.781e-02   0.000e+00
  -5.425e-01   6.781e-02   0.000e+00
  -6.781e-01   1.356e-01   0.000e+00
  -6.103e-01   6.781e-02   0.000e+00
  -6.103e-01   1.356e-01   0.000e+00
  -4.069e-01   2.298e-02   0.000e+00
  -4.511e-01   4.423e-02   0.000e+00
  -4.069e-01   6.781e-02   0.000e+00
  -4.747e-01   6.781e-02   0.000e+00
  -4.069e-01   0.000e+00   0.000e+00
  -4.069e-01   2.298e-02   0.000e+00
  -4.511e-01   4.423e-02   0.000e+00
  -4.069e-01   1.356e-01   0.000e+00
  -4.747e-01   1.356e-01   0.000e+00
  -4.069e-01   6.781e-02   0.000e+00
  -4.747e-01   1.356e-01   0.000e+00
  -4.747e-01   6.781e-02   0.000e+00
  -4.069e-01   6.781e-02   0.000e+00
  -5.425e-01   1.356e-01   0.000e+00
  -4.747e-01   6.781e-02   0.000e+00
  -4.747e-01   1.356e-01   0.000e+00
  -2.712e-01   0.000e+00   0.000e+00
  -2.712e-01   1.356e-01   0.000e+00
  -4.069e-01   1.356e-01   0.000e+00
  -1.356e-01   0.000e+00   0.000e+00
  -1.356e-01   1.356e-01   0.000e+00
  -2.712e-01   1.356e-01   0.000e+00
   0.000e+00   0.000e+00   0.000e+00
   0.000e+00   1.356e-01   0.000e+00
  -1.356e-01   1.356e-01   0.000e+00
   1.356e-01   0.000e+00   0.000e+00
   1.356e-01   1.356e-01   0.000e+00
   0.000e+00   1.356e-01   0.000e+00
   2.712e-01   0.000e+00   0.000e+00
   2.712e-01   1.356e-01   0.000e+00
   1.356e-01   1.356e-01   0.000e+00
   4.069e-01  -0.000e+00   0.000e+00
   4.069e-01   1.356e-01   0.000e+00
   2.712e-01   1.356e-01   0.000e+00
   5.425e-01   4.379e-02   0.000e+00
   5.126e-01   2.995e-02   0.000e+00
   5.425e-01   6.781e-02   0.000e+00
   4.747e-01   6.781e-02   0.000e+00
   5.425e-01   0.000e+00   0.000e+00
   5.425e-01   4.379e-02   0.000e+00
   5.126e-01   2.995e-02   0.000e+00
   5.425e-01   1.356e-01   0.000e+00
   4.747e-01   1.356e-01   0.000e+00
   5.425e-01   6.781e-02   0.000e+00
   4.747e-01   1.356e-01   0.000e+00
   4.747e-01   6.781e-02   0.000e+00
   5.425e-01   6.781e-02   0.000e+00
   4.069e-01   1.356e-01   0.000e+00
   4.747e-01   6.781e-02   0.000e+00
   4.747e-01   1.356e-01   0.000e+00
   6.781e-01   0.000e+00   0.000e+00
   6.781e-01   6.781e-02   0.000e+00
   6.103e-01   6.781e-02   0.000e+00
   6.697e-01   1.356e-01   0.000e+00
   6.398e-01   1.061e-01   0.000e+00
   6.103e-01   1.356e-01   0.000e+00
   6.781e-01   1.356e-01   0.000e+00
   6.697e-01   1.356e-01   0.000e+00
   6.398e-01   1.061e-01   0.000e+00
   6.781e-01   6.781e-02   0.000e+00
   6.103e-01   1.356e-01   0.000e+00
   6.398e-01   1.061e-01   0.000e+00
   6.103e-01   8.380e-02   0.000e+00
   6.398e-01   1.061e-01   0.000e+00
   6.103e-01   8.380e-02   0.000e+00
   6.103e-01   6.781e-02   0.000e+00
   6.781e-01   6.781e-02   0.000e+00
   5.425e-01   1.356e-01   0.000e+00
   6.103e-01   8.380e-02   0.000e+00
   6.010e-01   7.711e-02   0.000e+00
   6.103e-01   1.356e-01   0.000e+00
   6.103e-01   8.380e-02   0.000e+00
   6.010e-01   7.711e-02   0.000e+00
   6.103e-01   6.781e-02   0.000e+00
   8.137e-01   0.000e+00   0.000e+00
   8.137e-01   1.356e-01   0.000e+00
   6.781e-01   1.356e-01   0.000e+00
   9.494e-01  -0.000e+00   0.000e+00
   9.494e-01   1.356e-01   0.000e+00
   8.137e-01   1.356e-01   0.000e+00
   1.085e+00   0.000e+00   0.000e+00
   1.085e+00   1.356e-01   0.000e+00
   9.494e-01   1.356e-01   0.000e+00
  -9.494e-01   1.356e-01   0.000e+00
  -9.494e-01   2.712e-01   0.000e+00
  -1.085e+00   2.712e-01   0.000e+00
  -8.137e-01   1.356e-01   0.000e+00
  -8.137e-01   2.712e-01   0.000e+00
  -9.494e-01   2.712e-01   0.000e+00
  -6.781e-01   1.356e-01   0.000e+00
  -6.781e-01   2.712e-01   0.000e+00
  -8.137e-01   2.712e-01   0.000e+00
  -5.425e-01   1.356e-01   0.000e+00
  -5.425e-01   2.034e-01   0.000e+00
  -6.103e-01   2.034e-01   0.000e+00
  -5.425e-01   2.712e-01   0.000e+00
  -6.103e-01   2.712e-01   0.000e+00
  -5.425e-01   2.034e-01   0.000e+00
  -6.103e-01   2.712e-01   0.000e+00
  -6.103e-01   2.034e-01   0.000e+00
  -5.425e-01   2.034e-01   0.000e+00
  -6.204e-01   2.135e-01   0.000e+00
  -6.167e-01   2.712e-01   0.000e+00
  -6.103e-01   2.034e-01   0.000e+00
  -6.103e-01   2.712e-01   0.000e+00
  -6.781e-01   2.712e-01   0.000e+00
  -6.204e-01   2.135e-01   0.000e+00
  -6.167e-01   2.712e-01   0.000e+00
  -4.069e-01   1.356e-01   0.000e+00
  -4.069e-01   2.712e-01   0.000e+00
  -5.425e-01   2.712e-01   0.000e+00
  -2.712e-01   1.356e-01   0.000e+00
  -2.712e-01   2.712e-01   0.000e+00
  -4.069e-01   2.712e-01   0.000e+00
  -1.356e-01   1.356e-01   0.000e+00
  -1.356e-01   2.712e-01   0.000e+00
  -2.712e-01   2.712e-01   0.000e+00
   0.000e+00   1.356e-01   0.000e+00
   0.000e+00   2.712e-01   0.000e+00
  -1.356e-01   2.712e-01   0.000e+00
   1.356e-01   1.356e-01   0.000e+00
   1.356e-01   2.712e-01   0.000e+00
   0.000e+00   2.712e-01   0.000e+00
   2.712e-01   1.356e-01   0.000e+00
   2.712e-01   2.712e-01   0.000e+00
   1.356e-01   2.712e-01   0.000e+00
   4.069e-01   1.356e-01   0.000e+00
   4.069e-01   2.712e-01   0.000e+00
   2.712e-01   2.712e-01   0.000e+00
   5.425e-01   1.356e-01   0.000e+00
   5.425e-01   2.712e-01   0.000e+00
   4.069e-01   2.712e-01   0.000e+00
   6.781e-01   1.467e-01   0.000e+00
   6.739e-01   1.398e-01   0.000e+00
   6.781e-01   2.034e-01   0.000e+00
   6.103e-01   2.034e-01   0.000e+00
   6.781e-01   1.356e-01   0.000e+00
   6.781e-01   1.467e-01   0.000e+00
   6.739e-01   1.398e-01   0.000e+00
   6.781e-01   2.712e-01   0.000e+00
   6.103e-01   2.712e-01   0.000e+00
   6.781e-01   2.034e-01   0.000e+00
   6.103e-01   2.712e-01   0.000e+00
   6.103e-01   2.034e-01   0.000e+00
   6.781e-01   2.034e-01   0.000e+00
   5.425e-01   2.712e-01   0.000e+00
   6.103e-01   2.034e-01   0.000e+00
   6.103e-01   2.712e-01   0.000e+00
   8.137e-01   1.356e-01   0.000e+00
   8.137e-01   2.034e-01   0.000e+00
   7.459e-01   2.034e-01   0.000e+00
   8.137e-01   2.712e-01   0.000e+00
   7.459e-01   2.712e-01   0.000e+00
   8.137e-01   2.034e-01   0.000e+00
   7.459e-01   2.712e-01   0.000e+00
   7.459e-01   2.034e-01   0.000e+00
   8.137e-01   2.034e-01   0.000e+00
   6.781e-01   2.712e-01   0.000e+00
   7.062e-01   2.432e-01   0.000e+00
   7.051e-01   2.712e-01   0.000e+00
   7.062e-01   2.432e-01   0.000e+00
   7.051e-01   2.712e-01   0.000e+00
   7.459e-01   2.034e-01   0.000e+00
   7.459e-01   2.712e-01   0.000e+00
   9.494e-01   1.356e-01   0.000e+00
   9.494e-01   2.712e-01   0.000e+00
   8.137e-01   2.712e-01   0.000e+00
   1.085e+00   1.356e-01   0.000e+00
   1.085e+00   2.712e-01   0.000e+00
   9.494e-01   2.712e-01   0.000e+00
  -9.494e-01   2.712e-01   0.000e+00
  -9.494e-01   4.069e-01   0.000e+00
  -1.085e+00   4.069e-01   0.000e+00
  -8.137e-01   2.712e-01   0.000e+00
  -8.137e-01   4.069e-01   0.000e+00
  -9.494e-01   4.069e-01   0.000e+00
  -6.781e-01   2.712e-01   0.000e+00
  -6.781e-01   4.069e-01   0.000e+00
  -8.137e-01   4.069e-01   0.000e+00
  -5.425e-01   2.712e-01   0.000e+00
  -5.425e-01   3.308e-01   0.000e+00
  -5.820e-01   3.108e-01   0.000e+00
  -5.425e-01   3.308e-01   0.000e+00
  -5.820e-01   3.108e-01   0.000e+00
  -5.425e-01   3.391e-01   0.000e+00
  -6.103e-01   3.391e-01   0.000e+00
  -5.425e-01   4.069e-01   0.000e+00
  -6.103e-01   4.069e-01   0.000e+00
  -5.425e-01   3.391e-01   0.000e+00
  -6.103e-01   4.069e-01   0.000e+00
  -6.103e-01   3.391e-01   0.000e+00
  -5.425e-01   3.391e-01   0.000e+00
  -6.781e-01   4.069e-01   0.000e+00
  -6.103e-01   3.391e-01   0.000e+00
  -6.103e-01   4.069e-01   0.000e+00
  -4.069e-01   2.712e-01   0.000e+00
  -4.069e-01   3.391e-01   0.000e+00
  -4.747e-01   3.391e-01   0.000e+00
  -4.069e-01   3.445e-01   0.000e+00
  -4.123e-01   3.445e-01   0.000e+00
  -4.069e-01   3.391e-01   0.000e+00
  -4.069e-01   4.069e-01   0.000e+00
  -4.747e-01   4.069e-01   0.000e+00
  -4.069e-01   3.445e-01   0.000e+00
  -4.123e-01   3.445e-01   0.000e+00
  -4.123e-01   3.445e-01   0.000e+00
  -4.747e-01   3.447e-01   0.000e+00
  -4.747e-01   3.391e-01   0.000e+00
  -4.069e-01   3.391e-01   0.000e+00
  -4.747e-01   4.069e-01   0.000e+00
  -4.123e-01   3.445e-01   0.000e+00
  -4.747e-01   3.447e-01   0.000e+00
  -4.747e-01   3.447e-01   0.000e+00
  -4.796e-01   3.440e-01   0.000e+00
  -4.747e-01   3.391e-01   0.000e+00
  -5.425e-01   4.069e-01   0.000e+00
  -4.747e-01   3.447e-01   0.000e+00
  -4.796e-01   3.440e-01   0.000e+00
  -4.747e-01   4.069e-01   0.000e+00
  -2.712e-01   2.712e-01   0.000e+00
  -2.712e-01   3.180e-01   0.000e+00
  -3.333e-01   3.333e-01   0.000e+00
  -2.712e-01   3.180e-01   0.000e+00
  -3.333e-01   3.333e-01   0.000e+00
  -2.712e-01   3.391e-01   0.000e+00
  -3.391e-01   3.391e-01   0.000e+00
  -2.712e-01   4.069e-01   0.000e+00
  -3.391e-01   4.069e-01   0.000e+00
  -2.712e-01   3.391e-01   0.000e+00
  -3.391e-01   4.069e-01   0.000e+00
  -3.391e-01   3.391e-01   0.000e+00
  -2.712e-01   3.391e-01   0.000e+00
  -4.069e-01   4.069e-01   0.000e+00
  -3.391e-01   3.391e-01   0.000e+00
  -3.391e-01   4.069e-01   0.000e+00
  -1.356e-01   2.712e-01   0.000e+00
  -1.356e-01   3.006e-01   0.000e+00
  -1.524e-01   2.880e-01   0.000e+00
  -1.356e-01   3.006e-01   0.000e+00
  -1.524e-01   2.880e-01   0.000e+00
  -1.356e-01   3.391e-01   0.000e+00
  -2.034e-01   3.391e-01   0.000e+00
  -1.356e-01   4.069e-01   0.000e+00
  -2.034e-01   4.069e-01   0.000e+00
  -1.356e-01   3.391e-01   0.000e+00
  -2.034e-01   4.069e-01   0.000e+00
  -2.034e-01   3.391e-01   0.000e+00
  -1.356e-01   3.391e-01   0.000e+00
  -2.712e-01   4.069e-01   0.000e+00
  -2.034e-01   3.391e-01   0.000e+00
  -2.034e-01   4.069e-01   0.000e+00
   0.000e+00   2.712e-01   0.000e+00
   0.000e+00   3.391e-01   0.000e+00
  -6.781e-02   3.391e-01   0.000e+00
   0.000e+00   4.069e-01   0.000e+00
  -6.781e-02   4.069e-01   0.000e+00
   0.000e+00   3.391e-01   0.000e+00
  -6.781e-02   4.069e-01   0.000e+00
  -6.781e-02   3.391e-01   0.000e+00
   0.000e+00   3.391e-01   0.000e+00
  -1.181e-01   3.893e-01   0.000e+00
  -1.180e-01   4.069e-01   0.000e+00
  -6.781e-02   3.391e-01   0.000e+00
  -6.781e-02   4.069e-01   0.000e+00
  -1.356e-01   4.069e-01   0.000e+00
  -1.181e-01   3.893e-01   0.000e+00
  -1.180e-01   4.069e-01   0.000e+00
   1.356e-01   2.712e-01   0.000e+00
   1.356e-01   4.069e-01   0.000e+00
   0.000e+00   4.069e-01   0.000e+00
   2.712e-01   2.712e-01   0.000e+00
   2.712e-01   2.899e-01   0.000e+00
   2.091e-01   3.391e-01   0.000e+00
   2.034e-01   3.391e-01   0.000e+00
   2.712e-01   2.899e-01   0.000e+00
   2.091e-01   3.391e-01   0.000e+00
   2.712e-01   3.391e-01   0.000e+00
   2.075e-01   4.069e-01   0.000e+00
   2.088e-01   4.015e-01   0.000e+00
   2.034e-01   4.069e-01   0.000e+00
   2.712e-01   4.069e-01   0.000e+00
   2.075e-01   4.069e-01   0.000e+00
   2.088e-01   4.015e-01   0.000e+00
   2.712e-01   3.391e-01   0.000e+00
   2.034e-01   4.069e-01   0.000e+00
   2.034e-01   3.391e-01   0.000e+00
   2.091e-01   3.391e-01   0.000e+00
   2.088e-01   4.015e-01   0.000e+00
   2.091e-01   3.391e-01   0.000e+00
   2.088e-01   4.015e-01   0.000e+00
   2.712e-01   3.391e-01   0.000e+00
   1.356e-01   4.069e-01   0.000e+00
   2.034e-01   3.391e-01   0.000e+00
   2.034e-01   4.069e-01   0.000e+00
   4.069e-01   2.712e-01   0.000e+00
   4.069e-01   3.301e-01   0.000e+00
   3.604e-01   3.177e-01   0.000e+00
   4.069e-01   3.301e-01   0.000e+00
   3.604e-01   3.177e-01   0.000e+00
   4.069e-01   3.391e-01   0.000e+00
   3.391e-01   3.391e-01   0.000e+00
   4.069e-01   4.069e-01   0.000e+00
   3.391e-01   4.069e-01   0.000e+00
   4.069e-01   3.391e-01   0.000e+00
   3.391e-01   4.069e-01   0.000e+00
   3.391e-01   3.391e-01   0.000e+00
   4.069e-01   3.391e-01   0.000e+00
   2.712e-01   4.069e-01   0.000e+00
   3.391e-01   3.391e-01   0.000e+00
   3.391e-01   4.069e-01   0.000e+00
   5.425e-01   2.712e-01   0.000e+00
   5.425e-01   3.391e-01   0.000e+00
   4.747e-01   3.391e-01   0.000e+00
   5.425e-01   3.459e-01   0.000e+00
   5.360e-01   3.456e-01   0.000e+00
   5.425e-01   3.391e-01   0.000e+00
   5.425e-01   4.069e-01   0.000e+00
   4.747e-01   4.069e-01   0.000e+00
   5.425e-01   3.459e-01   0.000e+00
   5.360e-01   3.456e-01   0.000e+00
   5.360e-01   3.456e-01   0.000e+00
   4.747e-01   3.423e-01   0.000e+00
   4.747e-01   3.391e-01   0.000e+00
   5.425e-01   3.391e-01   0.000e+00
   4.747e-01   4.069e-01   0.000e+00
   5.360e-01   3.456e-01   0.000e+00
   4.747e-01   3.423e-01   0.000e+00
   4.747e-01   3.423e-01   0.000e+00
   4.719e-01   3.418e-01   0.000e+00
   4.747e-01   3.391e-01   0.000e+00
   4.069e-01   4.069e-01   0.000e+00
   4.747e-01   3.423e-01   0.000e+00
   4.719e-01   3.418e-01   0.000e+00
   4.747e-01   4.069e-01   0.000e+00
   6.781e-01   2.712e-01   0.000e+00
   6.781e-01   3.035e-01   0.000e+00
   6.144e-01   3.350e-01   0.000e+00
   6.781e-01   3.035e-01   0.000e+00
   6.144e-01   3.350e-01   0.000e+00
   6.781e-01   3.391e-01   0.000e+00
   6.103e-01   3.391e-01   0.000e+00
   6.781e-01   4.069e-01   0.000e+00
   6.103e-01   4.069e-01   0.000e+00
   6.781e-01   3.391e-01   0.000e+00
   6.103e-01   4.069e-01   0.000e+00
   6.103e-01   3.391e-01   0.000e+00
   6.781e-01   3.391e-01   0.000e+00
   5.425e-01   4.069e-01   0.000e+00
   6.103e-01   3.391e-01   0.000e+00
   6.103e-01   4.069e-01   0.000e+00
   8.137e-01   2.712e-01   0.000e+00
   8.137e-01   4.069e-01   0.000e+00
   6.781e-01   4.069e-01   0.000e+00
   9.494e-01   2.712e-01   0.000e+00
   9.494e-01   4.069e-01   0.000e+00
   8.137e-01   4.069e-01   0.000e+00
   1.085e+00   2.712e-01   0.000e+00
   1.085e+00   4.069e-01   0.000e+00
   9.494e-01   4.069e-01   0.000e+00
  -9.494e-01   4.069e-01   0.000e+00
  -9.494e-01   5.425e-01   0.000e+00
  -1.085e+00   5.425e-01   0.000e+00
  -8.137e-01   4.069e-01   0.000e+00
  -8.137e-01   5.425e-01   0.000e+00
  -9.494e-01   5.425e-01   0.000e+00
  -6.781e-01   4.069e-01   0.000e+00
  -6.781e-01   5.425e-01   0.000e+00
  -8.137e-01   5.425e-01   0.000e+00
  -5.425e-01   4.069e-01   0.000e+00
  -5.425e-01   5.425e-01   0.000e+00
  -6.781e-01   5.425e-01   0.000e+00
  -4.069e-01   4.069e-01   0.000e+00
  -4.069e-01   5.425e-01   0.000e+00
  -5.425e-01   5.425e-01   0.000e+00
  -2.712e-01   4.069e-01   0.000e+00
  -2.712e-01   5.425e-01   0.000e+00
  -4.069e-01   5.425e-01   0.000e+00
  -1.356e-01   4.069e-01   0.000e+00
  -1.356e-01   5.425e-01   0.000e+00
  -2.712e-01   5.425e-01   0.000e+00
   0.000e+00   4.069e-01   0.000e+00
   0.000e+00   4.747e-01   0.000e+00
  -6.781e-02   4.747e-01   0.000e+00
   0.000e+00   5.425e-01   0.000e+00
  -6.781e-02   5.425e-01   0.000e+00
   0.000e+00   4.747e-01   0.000e+00
  -6.781e-02   5.425e-01   0.000e+00
  -6.781e-02   4.747e-01   0.000e+00
   0.000e+00   4.747e-01   0.000e+00
  -1.097e-01   5.166e-01   0.000e+00
  -1.060e-01   5.425e-01   0.000e+00
  -6.781e-02   4.747e-01   0.000e+00
  -6.781e-02   5.425e-01   0.000e+00
  -1.356e-01   5.425e-01   0.000e+00
  -1.097e-01   5.166e-01   0.000e+00
  -1.060e-01   5.425e-01   0.000e+00
   1.356e-01   4.069e-01   0.000e+00
   1.356e-01   5.425e-01   0.000e+00
   0.000e+00   5.425e-01   0.000e+00
   2.045e-01   4.736e-01   0.000e+00
   2.045e-01   4.747e-01   0.000e+00
   2.034e-01   4.747e-01   0.000e+00
   2.712e-01   4.069e-01   0.000e+00
   2.712e-01   4.747e-01   0.000e+00
   2.045e-01   4.736e-01   0.000e+00
   2.045e-01   4.747e-01   0.000e+00
   2.712e-01   5.425e-01   0.000e+00
   2.034e-01   5.425e-01   0.000e+00
   2.712e-01   4.747e-01   0.000e+00
   2.045e-01   4.747e-01   0.000e+00
   2.034e-01   4.827e-01   0.000e+00
   2.034e-01   4.747e-01   0.000e+00
   2.034e-01   5.425e-01   0.000e+00
   2.045e-01   4.747e-01   0.000e+00
   2.034e-01   4.827e-01   0.000e+00
   2.712e-01   4.747e-01   0.000e+00
   1.356e-01   5.425e-01   0.000e+00
   2.034e-01   4.747e-01   0.000e+00
   2.034e-01   4.827e-01   0.000e+00
   1.954e-01   5.425e-01   0.000e+00
   2.034e-01   4.827e-01   0.000e+00
   1.954e-01   5.425e-01   0.000e+00
   2.034e-01   5.425e-01   0.000e+00
   4.069e-01   4.069e-01   0.000e+00
   4.069e-01   5.425e-01   0.000e+00
   2.712e-01   5.425e-01   0.000e+00
   5.425e-01   4.069e-01   0.000e+00
   5.425e-01   5.425e-01   0.000e+00
   4.069e-01   5.425e-01   0.000e+00
   6.781e-01   4.069e-01   0.000e+00
   6.781e-01   5.425e-01   0.000e+00
   5.425e-01   5.425e-01   0.000e+00
   8.137e-01   4.069e-01   0.000e+00
   8.137e-01   5.425e-01   0.000e+00
   6.781e-01   5.425e-01   0.000e+00
   9.494e-01   4.069e-01   0.000e+00
   9.494e-01   5.425e-01   0.000e+00
   8.137e-01   5.425e-01   0.000e+00
   1.085e+00   4.069e-01   0.000e+00
   1.085e+00   5.425e-01   0.000e+00
   9.494e-01   5.425e-01   0.000e+00
  -9.494e-01   5.425e-01   0.000e+00
  -9.494e-01   6.781e-01   0.000e+00
  -1.085e+00   6.781e-01   0.000e+00
  -8.137e-01   5.425e-01   0.000e+00
  -8.137e-01   6.781e-01   0.000e+00
  -9.494e-01   6.781e-01   0.000e+00
  -6.781e-01   5.425e-01   0.000e+00
  -6.781e-01   6.781e-01   0.000e+00
  -8.137e-01   6.781e-01   0.000e+00
  -5.425e-01   5.425e-01   0.000e+00
  -5.425e-01   6.781e-01   0.000e+00
  -6.781e-01   6.781e-01   0.000e+00
  -4.069e-01   5.425e-01   0.000e+00
  -4.069e-01   6.781e-01   0.000e+00
  -5.425e-01   6.781e-01   0.000e+00
  -2.712e-01   5.425e-01   0.000e+00
  -2.712e-01   6.781e-01   0.000e+00
  -4.069e-01   6.781e-01   0.000e+00
  -1.356e-01   5.425e-01   0.000e+00
  -1.356e-01   6.781e-01   0.000e+00
  -2.712e-01   6.781e-01   0.000e+00
   0.000e+00   5.425e-01   0.000e+00
   0.000e+00   6.103e-01   0.000e+00
  -6.781e-02   6.103e-01   0.000e+00
   0.000e+00   6.781e-01   0.000e+00
  -5.498e-02   6.781e-01   0.000e+00
  -6.028e-02   6.706e-01   0.000e+00
   0.000e+00   6.103e-01   0.000e+00
  -5.498e-02   6.781e-01   0.000e+00
  -6.028e-02   6.706e-01   0.000e+00
  -6.781e-02   6.781e-01   0.000e+00
  -6.028e-02   6.706e-01   0.000e+00
  -6.781e-02   6.545e-01   0.000e+00
  -6.781e-02   6.103e-01   0.000e+00
   0.000e+00   6.103e-01   0.000e+00
  -6.781e-02   6.781e-01   0.000e+00
  -6.028e-02   6.706e-01   0.000e+00
  -6.781e-02   6.545e-01   0.000e+00
  -6.781e-02   6.545e-01   0.000e+00
  -8.242e-02   6.249e-01   0.000e+00
  -6.781e-02   6.103e-01   0.000e+00
  -1.356e-01   6.781e-01   0.000e+00
  -6.781e-02   6.545e-01   0.000e+00
  -8.242e-02   6.249e-01   0.000e+00
  -6.781e-02   6.781e-01   0.000e+00
   1.356e-01   5.425e-01   0.000e+00
   1.356e-01   6.781e-01   0.000e+00
   0.000e+00   6.781e-01   0.000e+00
   2.712e-01   5.425e-01   0.000e+00
   2.712e-01   6.103e-01   0.000e+00
   2.034e-01   6.103e-01   0.000e+00
   2.712e-01   6.781e-01   0.000e+00
   2.034e-01   6.781e-01   0.000e+00
   2.712e-01   6.103e-01   0.000e+00
   2.034e-01   6.781e-01   0.000e+00
   2.034e-01   6.103e-01   0.000e+00
   2.712e-01   6.103e-01   0.000e+00
   1.356e-01   6.781e-01   0.000e+00
   1.522e-01   6.616e-01   0.000e+00
   1.448e-01   6.781e-01   0.000e+00
   1.522e-01   6.616e-01   0.000e+00
   1.448e-01   6.781e-01   0.000e+00
   2.034e-01   6.103e-01   0.000e+00
   2.034e-01   6.781e-01   0.000e+00
   4.069e-01   5.425e-01   0.000e+00
   4.069e-01   6.781e-01   0.000e+00
   2.712e-01   6.781e-01   0.000e+00
   5.425e-01   5.425e-01   0.000e+00
   5.425e-01   6.781e-01   0.000e+00
   4.069e-01   6.781e-01   0.000e+00
   6.781e-01   5.425e-01   0.000e+00
   6.781e-01   6.781e-01   0.000e+00
   5.425e-01   6.781e-01   0.000e+00
   8.137e-01   5.425e-01   0.000e+00
   8.137e-01   6.781e-01   0.000e+00
   6.781e-01   6.781e-01   0.000e+00
   9.494e-01   5.425e-01   0.000e+00
   9.494e-01   6.781e-01   0.000e+00
   8.137e-01   6.781e-01   0.000e+00
   1.085e+00   5.425e-01   0.000e+00
   1.085e+00   6.781e-01   0.000e+00
   9.494e-01   6.781e-01   0.000e+00
  -9.494e-01   6.781e-01   0.000e+00
  -9.494e-01   8.137e-01   0.000e+00
  -1.085e+00   8.137e-01   0.000e+00
  -8.137e-01   6.781e-01   0.000e+00
  -8.137e-01   8.137e-01   0.000e+00
  -9.494e-01   8.137e-01   0.000e+00
  -6.781e-01   6.781e-01   0.000e+00
  -6.781e-01   8.137e-01   0.000e+00
  -8.137e-01   8.137e-01   0.000e+00
  -5.425e-01   6.781e-01   0.000e+00
  -5.425e-01   8.137e-01   0.000e+00
  -6.781e-01   8.137e-01   0.000e+00
  -4.069e-01   6.781e-01   0.000e+00
  -4.069e-01   8.137e-01   0.000e+00
  -5.425e-01   8.137e-01   0.000e+00
  -2.712e-01   6.781e-01   0.000e+00
  -2.712e-01   8.137e-01   0.000e+00
  -4.069e-01   8.137e-01   0.000e+00
  -1.356e-01   6.781e-01   0.000e+00
  -1.356e-01   8.137e-01   0.000e+00
  -2.712e-01   8.137e-01   0.000e+00
   0.000e+00   6.781e-01   0.000e+00
   0.000e+00   7.317e-01   0.000e+00
  -3.098e-02   7.091e-01   0.000e+00
   0.000e+00   7.317e-01   0.000e+00
  -3.098e-02   7.091e-01   0.000e+00
   0.000e+00   7.459e-01   0.000e+00
  -6.781e-02   7.459e-01   0.000e+00
   0.000e+00   8.137e-01   0.000e+00
  -6.781e-02   8.137e-01   0.000e+00
   0.000e+00   7.459e-01   0.000e+00
  -6.781e-02   8.137e-01   0.000e+00
  -6.781e-02   7.459e-01   0.000e+00
   0.000e+00   7.459e-01   0.000e+00
  -1.356e-01   8.137e-01   0.000e+00
  -6.781e-02   7.459e-01   0.000e+00
  -6.781e-02   8.137e-01   0.000e+00
   1.356e-01   6.781e-01   0.000e+00
   1.356e-01   6.900e-01   0.000e+00
   9.131e-02   7.224e-01   0.000e+00
   1.356e-01   6.900e-01   0.000e+00
   9.131e-02   7.224e-01   0.000e+00
   1.356e-01   7.459e-01   0.000e+00
   6.781e-02   7.459e-01   0.000e+00
   1.356e-01   8.137e-01   0.000e+00
   6.781e-02   8.137e-01   0.000e+00
   1.356e-01   7.459e-01   0.000e+00
   6.781e-02   8.137e-01   0.000e+00
   6.781e-02   7.459e-01   0.000e+00
   1.356e-01   7.459e-01   0.000e+00
   0.000e+00   8.137e-01   0.000e+00
   6.781e-02   7.459e-01   0.000e+00
   6.781e-02   8.137e-01   0.000e+00
   2.712e-01   6.781e-01   0.000e+00
   2.712e-01   8.137e-01   0.000e+00
   1.356e-01   8.137e-01   0.000e+00
   4.069e-01   6.781e-01   0.000e+00
   4.069e-01   8.137e-01   0.000e+00
   2.712e-01   8.137e-01   0.000e+00
   5.425e-01   6.781e-01   0.000e+00
   5.425e-01   8.137e-01   0.000e+00
   4.069e-01   8.137e-01   0.000e+00
   6.781e-01   6.781e-01   0.000e+00
   6.781e-01   8.137e-01   0.000e+00
   5.425e-01   8.137e-01   0.000e+00
   8.137e-01   6.781e-01   0.000e+00
   8.137e-01   8.137e-01   0.000e+00
   6.781e-01   8.137e-01   0.000e+00
   9.494e-01   6.781e-01   0.000e+00
   9.494e-01   8.137e-01   0.000e+00
   8.137e-01   8.137e-01   0.000e+00
   1.085e+00   6.781e-01   0.000e+00
   1.085e+00   8.137e-01   0.000e+00
   9.494e-01   8.137e-01   0.000e+00
  -9.494e-01   8.137e-01   0.000e+00
  -9.494e-01   9.494e-01   0.000e+00
  -1.085e+00   9.494e-01   0.000e+00
  -8.137e-01   8.137e-01   0.000e+00
  -8.137e-01   9.494e-01   0.000e+00
  -9.494e-01   9.494e-01   0.000e+00
  -6.781e-01   8.137e-01   0.000e+00
  -6.781e-01   9.494e-01   0.000e+00
  -8.137e-01   9.494e-01   0.000e+00
  -5.425e-01   8.137e-01   0.000e+00
  -5.425e-01   9.494e-01   0.000e+00
  -6.781e-01   9.494e-01   0.000e+00
  -4.069e-01   8.137e-01   0.000e+00
  -4.069e-01   9.494e-01   0.000e+00
  -5.425e-01   9.494e-01   0.000e+00
  -2.712e-01   8.137e-01   0.000e+00
  -2.712e-01   9.494e-01   0.000e+00
  -4.069e-01   9.494e-01   0.000e+00
  -1.356e-01   8.137e-01   0.000e+00
  -1.356e-01   9.494e-01   0.000e+00
  -2.712e-01   9.494e-01   0.000e+00
   0.000e+00   8.137e-01   0.000e+00
   0.000e+00   9.494e-01   0.000e+00
  -1.356e-01   9.494e-01   0.000e+00
   1.356e-01   8.137e-01   0.000e+00
   1.356e-01   9.494e-01   0.000e+00
   0.000e+00   9.494e-01   0.000e+00
   2.712e-01   8.137e-01   0.000e+00
   2.712e-01   9.494e-01   0.000e+00
   1.356e-01   9.494e-01   0.000e+00
   4.069e-01   8.137e-01   0.000e+00
   4.069e-01   9.494e-01   0.000e+00
   2.712e-01   9.494e-01   0.000e+00
   5.425e-01   8.137e-01   0.000e+00
   5.425e-01   9.494e-01   0.000e+00
   4.069e-01   9.494e-01   0.000e+00
   6.781e-01   8.137e-01   0.000e+00
   6.781e-01   9.494e-01   0.000e+00
   5.425e-01   9.494e-01   0.000e+00
   8.137e-01   8.137e-01   0.000e+00
   8.137e-01   9.494e-01   0.000e+00
   6.781e-01   9.494e-01   0.000e+00
   9.494e-01   8.137e-01   0.000e+00
   9.494e-01   9.494e-01   0.000e+00
   8.137e-01   9.494e-01   0.000e+00
   1.085e+00   8.137e-01   0.000e+00
   1.085e+00   9.494e-01   0.000e+00
   9.494e-01   9.494e-01   0.000e+00
  -9.494e-01   9.494e-01   0.000e+00
  -9.494e-01   1.085e+00   0.000e+00
  -1.085e+00   1.085e+00   0.000e+00
  -8.137e-01   9.494e-01   0.000e+00
  -8.137e-01   1.085e+00   0.000e+00
  -9.494e-01   1.085e+00   0.000e+00
  -6.781e-01   9.494e-01   0.000e+00
  -6.781e-01   1.085e+00   0.000e+00
  -8.137e-01   1.085e+00   0.000e+00
  -5.425e-01   9.494e-01   0.000e+00
  -5.425e-01   1.085e+00   0.000e+00
  -6.781e-01   1.085e+00   0.000e+00
  -4.069e-01   9.494e-01   0.000e+00
  -4.069e-01   1.085e+00   0.000e+00
  -5.425e-01   1.085e+00   0.000e+00
  -2.712e-01   9.494e-01   0.000e+00
  -2.712e-01   1.085e+00   0.000e+00
  -4.069e-01   1.085e+00   0.000e+00
  -1.356e-01   9.494e-01   0.000e+00
  -1.356e-01   1.085e+00   0.000e+00
  -2.712e-01   1.085e+00   0.000e+00
   0.000e+00   9.494e-01   0.000e+00
   0.000e+00   1.085e+00   0.000e+00
  -1.356e-01   1.085e+00   0.000e+00
   1.356e-01   9.494e-01   0.000e+00
   1.356e-01   1.085e+00   0.000e+00
   0.000e+00   1.085e+00   0.000e+00
   2.712e-01   9.494e-01   0.000e+00
   2.712e-01   1.085e+00   0.000e+00
   1.356e-01   1.085e+00   0.000e+00
   4.069e-01   9.494e-01   0.000e+00
   4.069e-01   1.085e+00   0.000e+00
   2.712e-01   1.085e+00   0.000e+00
   5.425e-01   9.494e-01   0.000e+00
   5.425e-01   1.085e+00   0.000e+00
   4.069e-01   1.085e+00   0.000e+00
   6.781e-01   9.494e-01   0.000e+00
   6.781e-01   1.085e+00   0.000e+00
   5.425e-01   1.085e+00   0.000e+00
   8.137e-01   9.494e-01   0.000e+00
   8.137e-01   1.085e+00   0.000e+00
   6.781e-01   1.085e+00   0.000e+00
   9.494e-01   9.494e-01   0.000e+00
   9.494e-01   1.085e+00   0.000e+00
   8.137e-01   1.085e+00   0.000e+00
   1.085e+00   9.494e-01   0.000e+00
   1.085e+00   1.085e+00   0.000e+00
   9.494e-01   1.085e+00   0.000e+00

CELLS 920 3848
         3         0         1         2
         3         3         4         5
         3         6         7         8
         3         9        10        11
         3        12        13        14
         3        15        16        17
         3        18        19        20
         3        21        22        23
         3        24        25        26
         3        27        28        29
         3        30        31        32
         3        33        34        35
         3        36        37        38
         3        39        40        41
         3        42        43        44
         3        45        46        47
         3        48        49        50
         3        51        52        53
         3        54        55        56
         3        57        58        59
         3        60        61        62
         3        63        64        65
         3        66        67        68
         3        69        70        71
         3        72        73        74
         3        75        76        77
         3        78        79        80
         3        81        82        83
         3        84        85        86
         3        87        88        89
         3        90        91        92
         3        93        94        95
         3        96        97        98
         3        99       100       101
         3       102       103       104
         3       105       106       107
         3       108       109       110
         3       111       112       113
         3       114       115       116
         3       117       118       119
         3       120       121       122
         3       123       124       125
         3       126       127       128
         3       129       130       131
         3       132       133       134
         3       135       136       137
         3       138       139       140
         3       141       142       143
         3       144       145       146
         3       147       148       149
         3       150       151       152
         3       153       154       155
         3       156       157       158
         3       159       160       161
         3       162       163       164
         3       165       166       167
         3       168       169       170
         3       171       172       173
         3       174       175       176
         3       177       178       179
         3       180       181       182
         3       183       184       185
         3       186       187       188
         3       189       190       191
         3       192       193       194
         3       195       196       197
         3       198       199       200
         3       201       202       203
         3       204       205       206
         3       207       208       209
         3       210       211       212
         4       213       214       215       216
         3       217       218       219
         4       220       221       222       223
         4       224       226       225       227
         3       228       229       230
         3       231       232       233
         4       234       235       237       236
         3       238       239       240
         4       241       242       243       244
         4       245       246       247       248
         3       249       250       251
         3       252       253       254
         3       255       256       257
         3       258       259       260
         3       261       262       263
         3       264       265       266
         4       267       269       270       268
         3       271       272       273
         3       274       275       276
         3       277       278       279
         4       280       281       283       282
         3       284       285       286
         4       287       288       289       290
         4       291       292       293       294
         3       295       296       297
         3       298       299       300
         3       301       302       303
         4       304       305       307       306
         3       308       309       310
         4       311       312       313       314
         4       315       316       317       318
         3       319       320       321
         3       322       323       324
         3       325       326       327
         3       328       329       330
         3       331       332       333
         3       334       335       336
         3       337       338       339
         3       340       341       342
         3       343       344       345
         3       346       347       348
         3       349       350       351
         3       352       353       354
         4       355       357       358       356
         3       359       360       361
         3       362       363       364
         4       365       366       368       367
         3       369       370       371
         3       372       373       374
         4       375       377       376       378
         3       379       380       381
         3       382       383       384
         4       385       386       387       388
         3       389       390       391
         4       392       393       394       395
         3       396       397       398
         3       399       400       401
         4       402       403       404       405
         4       406       407       408       409
         3       410       411       412
         3       413       414       415
         3       416       417       418
         3       419       420       421
         3       422       423       424
         3       425       426       427
         4       428       430       431       429
         4       432       434       435       433
         3       436       437       438
         3       439       440       441
         3       442       443       444
         3       445       446       447
         3       448       449       450
         3       451       452       453
         4       454       456       457       455
         3       458       459       460
         3       461       462       463
         3       464       465       466
         3       467       468       469
         3       470       471       472
         3       473       474       475
         3       476       477       478
         3       479       480       481
         3       482       483       484
         3       485       486       487
         3       488       489       490
         3       491       492       493
         3       494       495       496
         4       497       498       499       500
         4       501       502       503       504
         3       505       506       507
         3       508       509       510
         4       511       512       513       514
         3       515       516       517
         3       518       519       520
         3       521       522       523
         4       524       525       526       527
         3       528       529       530
         4       531       532       534       533
         3       535       536       537
         4       538       539       540       541
         3       542       543       544
         3       545       546       547
         3       548       549       550
         3       551       552       553
         4       554       555       556       557
         3       558       559       560
         3       561       562       563
         3       564       565       566
         4       567       569       568       570
         3       571       572       573
         4       574       576       575       577
         3       578       579       580
         3       581       582       583
         3       584       585       586
         3       587       588       589
         3       590       591       592
         3       593       594       595
         3       596       597       598
         3       599       600       601
         3       602       603       604
         3       605       606       607
         3       608       609       610
         4       611       613       614       612
         3       615       616       617
         3       618       619       620
         4       621       622       624       623
         3       625       626       627
         3       628       629       630
         4       631       633       632       634
         3       635       636       637
         4       638       640       639       641
         3       642       643       644
         3       645       646       647
         3       648       649       650
         3       651       652       653
         3       654       655       656
         3       657       658       659
         4       660       661       663       662
         4       664       665       666       667
         3       668       669       670
         4       671       672       673       674
         3       675       676       677
         3       678       679       680
         3       681       682       683
         3       684       685       686
         3       687       688       689
         4       690       692       693       691
         3       694       695       696
         3       697       698       699
         3       700       701       702
         3       703       704       705
         3       706       707       708
         3       709       710       711
         3       712       713       714
         3       715       716       717
         3       718       719       720
         3       721       722       723
         4       724       725       726       727
         3       728       729       730
         4       731       732       733       734
         4       735       737       736       738
         3       739       740       741
         4       742       744       745       743
         3       746       747       748
         3       749       750       751
         3       752       753       754
         3       755       756       757
         3       758       759       760
         3       761       762       763
         3       764       765       766
         3       767       768       769
         3       770       771       772
         4       773       774       775       776
         3       777       778       779
         3       780       781       782
         4       783       784       785       786
         4       787       788       789       790
         3       791       792       793
         3       794       795       796
         3       797       798       799
         4       800       801       803       802
         3       804       805       806
         3       807       808       809
         4       810       812       811       813
         4       814       815       816       817
         3       818       819       820
         3       821       822       823
         3       824       825       826
         3       827       828       829
         3       830       831       832
         3       833       834       835
         3       836       837       838
         3       839       840       841
         4       842       843       845       844
         3       846       847       848
         3       849       850       851
         4       852       853       854       855
         3       856       857       858
         4       859       860       861       862
         3       863       864       865
         3       866       867       868
         3       869       870       871
         3       872       873       874
         3       875       876       877
         3       878       879       880
         3       881       882       883
         3       884       885       886
         3       887       888       889
         4       890       892       893       891
         3       894       895       896
         3       897       898       899
         3       900       901       902
         3       903       904       905
         4       906       907       909       908
         3       910       911       912
         3       913       914       915
         4       916       918       917       919
         4       920       921       922       923
         3       924       925       926
         3       927       928       929
         3       930       931       932
         3       933       934       935
         3       936       937       938
         3       939       940       941
         3       942       943       944
         4       945       946       947       948
         4       949       950       951       952
         3       953       954       955
         3       956       957       958
         4       959       960       961       962
         3       963       964       965
         4       966       967       969       968
         3       970       971       972
         3       973       974       975
         4       976       978       977       979
         3       980       981       982
         3       983       984       985
         4       986       987       988       989
         3       990       991       992
         4       993       994       995       996
         3       997       998       999
         4      1000      1001      1002      1003
         3      1004      1005      1006
         3      1007      1008      1009
         4      1010      1012      1011      1013
         4      1014      1015      1017      1016
         3      1018      1019      1020
         4      1021      1022      1023      1024
         3      1025      1026      1027
         3      1028      1029      1030
         4      1031      1032      1033      1034
         3      1035      1036      1037
         4      1038      1039      1041      1040
         3      1042      1043      1044
         3      1045      1046      1047
         4      1048      1050      1049      1051
         3      1052      1053      1054
         3      1055      1056      1057
         4      1058      1059      1060      1061
         3      1062      1063      1064
         3      1065      1066      1067
         4      1068      1069      1071      1070
         3      1072      1073      1074
         4      1075      1076      1077      1078
         3      1079      1080      1081
         3      1082      1083      1084
         4      1085      1086      1087      1088
         3      1089      1090      1091
         4      1092      1093      1095      1094
         3      1096      1097      1098
         3      1099      1100      1101
         4      1102      1104      1103      1105
         3      1106      1107      1108
         3      1109      1110      1111
         4      1112      1113      1114      1115
         3      1116      1117      1118
         4      1119      1120      1121      1122
         3      1123      1124      1125
         4      1126      1127      1128      1129
         3      1130      1131      1132
         3      1133      1134      1135
         4      1136      1138      1137      1139
         3      1140      1141      1142
         4      1143      1145      1146      1144
         3      1147      1148      1149
         3      1150      1151      1152
         3      1153      1154      1155
         3      1156      1157      1158
         3      1159      1160      1161
         3      1162      1163      1164
         3      1165      1166      1167
         3      1168      1169      1170
         3      1171      1172      1173
         3      1174      1175      1176
         3      1177      1178      1179
         3      1180      1181      1182
         3      1183      1184      1185
         4      1186      1187      1188      1189
         3      1190      1191      1192
         4      1193      1195      1194      1196
         3      1197      1198      1199
         3      1200      1201      1202
         4      1203      1204      1205      1206
         3      1207      1208      1209
         3      1210      1211      1212
         4      1213      1215      1216      1214
         3      1217      1218      1219
         3      1220      1221      1222
         3      1223      1224      1225
         3      1226      1227      1228
         3      1229      1230      1231
         3      1232      1233      1234
         3      1235      1236      1237
         3      1238      1239      1240
         3      1241      1242      1243
         3      1244      1245      1246
         3      1247      1248      1249
         3      1250      1251      1252
         3      1253      1254      1255
         3      1256      1257      1258
         3      1259      1260      1261
         3      1262      1263      1264
         3      1265      1266      1267
         4      1268      1269      1270      1271
         3      1272      1273      1274
         4      1275      1277      1276      1278
         3      1279      1280      1281
         3      1282      1283      1284
         4      1285      1286      1287      1288
         3      1289      1290      1291
         4      1292      1293      1294      1295
         3      1296      1297      1298
         3      1299      1300      1301
         3      1302      1303      1304
         4      1305      1307      1306      1308
         4      1309      1310      1311      1312
         3      1313      1314      1315
         3      1316      1317      1318
         3      1319      1320      1321
         3      1322      1323      1324
         3      1325      1326      1327
         3      1328      1329      1330
         3      1331      1332      1333
         3      1334      1335      1336
         3      1337      1338      1339
         3      1340      1341      1342
         3      1343      1344      1345
         3      1346      1347      1348
         3      1349      1350      1351
         3      1352      1353      1354
         3      1355      1356      1357
         3      1358      1359      1360
         4      1361      1363      1364      1362
         3      1365      1366      1367
         3      1368      1369      1370
         4      1371      1372      1374      1373
         3      1375      1376      1377
         4      1378      1379      1380      1381
         3      1382      1383      1384
         3      1385      1386      1387
         4      1388      1389      1390      1391
         3      1392      1393      1394
         3      1395      1396      1397
         4      1398      1400      1401      1399
         3      1402      1403      1404
         3      1405      1406      1407
         3      1408      1409      1410
         3      1411      1412      1413
         3      1414      1415      1416
         3      1417      1418      1419
         3      1420      1421      1422
         3      1423      1424      1425
         3      1426      1427      1428
         3      1429      1430      1431
         3      1432      1433      1434
         3      1435      1436      1437
         3      1438      1439      1440
         3      1441      1442      1443
         3      1444      1445      1446
         3      1447      1448      1449
         3      1450      1451      1452
         3      1453      1454      1455
         3      1456      1457      1458
         3      1459      1460      1461
         3      1462      1463      1464
         3      1465      1466      1467
         3      1468      1469      1470
         3      1471      1472      1473
         3      1474      1475      1476
         3      1477      1478      1479
         3      1480      1481      1482
         3      1483      1484      1485
         3      1486      1487      1488
         3      1489      1490      1491
         3      1492      1493      1494
         3      1495      1496      1497
         3      1498      1499      1500
         3      1501      1502      1503
         3      1504      1505      1506
         3      1507      1508      1509
         3      1510      1511      1512
         3      1513      1514      1515
         3      1516      1517      1518
         3      1519      1520      1521
         3      1522      1523      1524
         3      1525      1526      1527
         3      1528      1529      1530
         3      1531      1532      1533
         3      1534      1535      1536
         3      1537      1538      1539
         3      1540      1541      1542
         3      1543      1544      1545
         3      1546      1547      1548
         3      1549      1550      1551
         3      1552      1553      1554
         3      1555      1556      1557
         3      1558      1559      1560
         3      1561      1562      1563
         3      1564      1565      1566
         3      1567      1568      1569
         3      1570      1571      1572
         3      1573      1574      1575
         3      1576      1577      1578
         3      1579      1580      1581
         3      1582      1583      1584
         3      1585      1586      1587
         3      1588      1589      1590
         3      1591      1592      1593
         3      1594      1595      1596
         3      1597      1598      1599
         3      1600      1601      1602
         3      1603      1604      1605
         3      1606      1607      1608
         3      1609      1610      1611
         3      1612      1613      1614
         3      1615      1616      1617
         3      1618      1619      1620
         3      1621      1622      1623
         3      1624      1625      1626
         3      1627      1628      1629
         3      1630      1631      1632
         3      1633      1634      1635
         3      1636      1637      1638
         3      1639      1640      1641
         3      1642      1643      1644
         3      1645      1646      1647
         3      1648      1649      1650
         3      1651      1652      1653
         3      1654      1655      1656
         3      1657      1658      1659
         3      1660      1661      1662
         3      1663      1664      1665
         3      1666      1667      1668
         3      1669      1670      1671
         3      1672      1673      1674
         3      1675      1676      1677
         3      1678      1679      1680
         3      1681      1682      1683
         3      1684      1685      1686
         3      1687      1688      1689
         3      1690      1691      1692
         3      1693      1694      1695
         3      1696      1697      1698
         3      1699      1700      1701
         3      1702      1703      1704
         3      1705      1706      1707
         3      1708      1709      1710
         3      1711      1712      1713
         3      1714      1715      1716
         3      1717      1718      1719
         3      1720      1721      1722
         3      1723      1724      1725
         3      1726      1727      1728
         3      1729      1730      1731
         3      1732      1733      1734
         4      1735      1737      1738      1736
         3      1739      1740      1741
         3      1742      1743      1744
         4      1745      1747      1748      1746
         3      1749      1750      1751
         3      1752      1753      1754
         3      1755      1756      1757
         3      1758      1759      1760
         3      1761      1762      1763
         4      1764      1765      1767      1766
         4      1768      1769      1771      1770
         3      1772      1773      1774
         4      1775      1776      1777      1778
         3      1779      1780      1781
         3      1782      1783      1784
         3      1785      1786      1787
         3      1788      1789      1790
         3      1791      1792      1793
         3      1794      1795      1796
         4      1797      1799      1800      1798
         3      1801      1802      1803
         3      1804      1805      1806
         4      1807      1808      1809      1810
         3      1811      1812      1813
         4      1814      1816      1815      1817
         3      1818      1819      1820
         3      1821      1822      1823
         4      1824      1825      1826      1827
         4      1828      1830      1831      1829
         3      1832      1833      1834
         3      1835      1836      1837
         3      1838      1839      1840
         3      1841      1842      1843
         3      1844      1845      1846
         4      1847      1848      1850      1849
         3      1851      1852      1853
         4      1854      1855      1856      1857
         4      1858      1859      1860      1861
         3      1862      1863      1864
         3      1865      1866      1867
         3      1868      1869      1870
         3      1871      1872      1873
         3      1874      1875      1876
         3      1877      1878      1879
         3      1880      1881      1882
         3      1883      1884      1885
         3      1886      1887      1888
         3      1889      1890      1891
         3      1892      1893      1894
         4      1895      1897      1898      1896
         3      1899      1900      1901
         3      1902      1903      1904
         3      1905      1906      1907
         3      1908      1909      1910
         3      1911      1912      1913
         3      1914      1915      1916
         4      1917      1919      1920      1918
         3      1921      1922      1923
         3      1924      1925      1926
         3      1927      1928      1929
         4      1930      1931      1933      1932
         4      1934      1935      1937      1936
         3      1938      1939      1940
         4      1941      1942      1943      1944
         3      1945      1946      1947
         3      1948      1949      1950
         3      1951      1952      1953
         4      1954      1955      1956      1957
         4      1958      1959      1960      1961
         3      1962      1963      1964
         3      1965      1966      1967
         4      1968      1969      1970      1971
         3      1972      1973      1974
         4      1975      1977      1978      1976
         3      1979      1980      1981
         3      1982      1983      1984
         3      1985      1986      1987
         4      1988      1989      1991      1990
         3      1992      1993      1994
         3      1995      1996      1997
         4      1998      2000      1999      2001
         4      2002      2003      2004      2005
         3      2006      2007      2008
         3      2009      2010      2011
         3      2012      2013      2014
         3      2015      2016      2017
         3      2018      2019      2020
         3      2021      2022      2023
         3      2024      2025      2026
         3      2027      2028      2029
         3      2030      2031      2032
         3      2033      2034      2035
         4      2036      2037      2039      2038
         3      2040      2041      2042
         4      2043      2044      2045      2046
         3      2047      2048      2049
         3      2050      2051      2052
         4      2053      2054      2055      2056
         3      2057      2058      2059
         3      2060      2061      2062
         3      2063      2064      2065
         3      2066      2067      2068
         3      2069      2070      2071
         3      2072      2073      2074
         4      2075      2077      2078      2076
         3      2079      2080      2081
         3      2082      2083      2084
         3      2085      2086      2087
         3      2088      2089      2090
         3      2091      2092      2093
         3      2094      2095      2096
         3      2097      2098      2099
         3      2100      2101      2102
         3      2103      2104      2105
         3      2106      2107      2108
         3      2109      2110      2111
         3      2112      2113      2114
         3      2115      2116      2117
         3      2118      2119      2120
         4      2121      2123      2124      2122
         4      2125      2126      2128      2127
         3      2129      2130      2131
         3      2132      2133      2134
         4      2135      2136      2137      2138
         3      2139      2140      2141
         4      2142      2143      2144      2145
         3      2146      2147      2148
         3      2149      2150      2151
         3      2152      2153      2154
         3      2155      2156      2157
         3      2158      2159      2160
         4      2161      2162      2164      2163
         3      2165      2166      2167
         3      2168      2169      2170
         4      2171      2172      2173      2174
         4      2175      2177      2176      2178
         3      2179      2180      2181
         3      2182      2183      2184
         3      2185      2186      2187
         3      2188      2189      2190
         3      2191      2192      2193
         4      2194      2196      2197      2195
         3      2198      2199      2200
         3      2201      2202      2203
         3      2204      2205      2206
         3      2207      2208      2209
         3      2210      2211      2212
         3      2213      2214      2215
         3      2216      2217      2218
         3      2219      2220      2221
         3      2222      2223      2224
         4      2225      2227      2228      2226
         3      2229      2230      2231
         3      2232      2233      2234
         4      2235      2237      2238      2236
         3      2239      2240      2241
         3      2242      2243      2244
         3      2245      2246      2247
         3      2248      2249      2250
         3      2251      2252      2253
         3      2254      2255      2256
         3      2257      2258      2259
         3      2260      2261      2262
         3      2263      2264      2265
         3      2266      2267      2268
         4      2269      2271      2272      2270
         3      2273      2274      2275
         3      2276      2277      2278
         3      2279      2280      2281
         3      2282      2283      2284
         3      2285      2286      2287
         3      2288      2289      2290
         4      2291      2292      2293      2294
         3      2295      2296      2297
         4      2298      2299      2300      2301
         4      2302      2304      2303      2305
         3      2306      2307      2308
         3      2309      2310      2311
         3      2312      2313      2314
         3      2315      2316      2317
         3      2318      2319      2320
         3      2321      2322      2323
         3      2324      2325      2326
         3      2327      2328      2329
         3      2330      2331      2332
         3      2333      2334      2335
         4      2336      2338      2339      2337
         3      2340      2341      2342
         3      2343      2344      2345
         3      2346      2347      2348
         3      2349      2350      2351
         3      2352      2353      2354
         3      2355      2356      2357
         3      2358      2359      2360
         3      2361      2362      2363
         3      2364      2365      2366
         4      2367      2369      2370      2368
         3      2371      2372      2373
         3      2374      2375      2376
         3      2377      2378      2379
         3      2380      2381      2382
         3      2383      2384      2385
         3      2386      2387      2388
         3      2389      2390      2391
         3      2392      2393      2394
         4      2395      2397      2398      2396
         3      2399      2400      2401
         3      2402      2403      2404
         3      2405      2406      2407
         3      2408      2409      2410
         3      2411      2412      2413
         3      2414      2415      2416
         4      2417      2419      2420      2418
         3      2421      2422      2423
         3      2424      2425      2426
         3      2427      2428      2429
         3      2430      2431      2432
         3      2433      2434      2435
         4      2436      2437      2439      2438
         4      2440      2441      2442      2443
         3      2444      2445      2446
         3      2447      2448      2449
         4      2450      2452      2451      2453
         3      2454      2455      2456
         4      2457      2459      2460      2458
         3      2461      2462      2463
         3      2464      2465      2466
         3      2467      2468      2469
         3      2470      2471      2472
         4      2473      2475      2476      2474
         3      2477      2478      2479
         3      2480      2481      2482
         3      2483      2484      2485
         3      2486      2487      2488
         3      2489      2490      2491
         3      2492      2493      2494
         4      2495      2497      2498      2496
         3      2499      2500      2501
         3      2502      2503      2504
         4      2505      2506      2507      2508
         3      2509      2510      2511
         3      2512      2513      2514
         4      2515      2516      2517      2518
         4      2519      2520      2521      2522
         3      2523      2524      2525
         3      2526      2527      2528
         3      2529      2530      2531
         4      2532      2534      2535      2533
         3      2536      2537      2538
         3      2539      2540      2541
         3      2542      2543      2544
         3      2545      2546      2547
         3      2548      2549      2550
         4      2551      2552      2554      2553
         4      2555      2556      2557      2558
         3      2559      2560      2561
         3      2562      2563      2564
         4      2565      2567      2566      2568
         3      2569      2570      2571
         4      2572      2574      2575      2573
         3      2576      2577      2578
         3      2579      2580      2581
         3      2582      2583      2584
         3      2585      2586      2587
         3      2588      2589      2590
         3      2591      2592      2593
         3      2594      2595      2596
         3      2597      2598      2599
         3      2600      2601      2602
         3      2603      2604      2605
         3      2606      2607      2608
         3      2609      2610      2611
         3      2612      2613      2614
         3      2615      2616      2617
         3      2618      2619      2620
         3      2621      2622      2623
         4      2624      2626      2627      2625
         3      2628      2629      2630
         3      2631      2632      2633
         3      2634      2635      2636
         4      2637      2638      2640      2639
         3      2641      2642      2643
         3      2644      2645      2646
         4      2647      2649      2648      2650
         4      2651      2652      2653      2654
         3      2655      2656      2657
         3      2658      2659      2660
         3      2661      2662      2663
         3      2664      2665      2666
         3      2667      2668      2669
         3      2670      2671      2672
         3      2673      2674      2675
         3      2676      2677      2678
         3      2679      2680      2681
         3      2682      2683      2684
         3      2685      2686      2687
         3      2688      2689      2690
         3      2691      2692      2693
         3      2694      2695      2696
         3      2697      2698      2699
         4      2700      2701      2702      2703
         3      2704      2705      2706
         4      2707      2708      2709      2710
         3      2711      2712      2713
         3      2714      2715      2716
         4      2717      2719      2718      2720
         3      2721      2722      2723
         3      2724      2725      2726
         3      2727      2728      2729
         3      2730      2731      2732
         3      2733      2734      2735
         4      2736      2738      2739      2737
         3      2740      2741      2742
         3      2743      2744      2745
         3      2746      2747      2748
         3      2749      2750      2751
         3      2752      2753      2754
         3      2755      2756      2757
         3      2758      2759      2760
         3      2761      2762      2763
         3      2764      2765      2766
         3      2767      2768      2769
         3      2770      2771      2772
         3      2773      2774      2775
         3      2776      2777      2778
         3      2779      2780      2781
         4      2782      2784      2785      2783
         3      2786      2787      2788
         3      2789      2790      2791
         3      2792      2793      2794
         3      2795      2796      2797
         4      2798      2800      2801      2799
         3      2802      2803      2804
         3      2805      2806      2807
         3      2808      2809      2810
         3      2811      2812      2813
         3      2814      2815      2816
         3      2817      2818      2819
         3      2820      2821      2822
         3      2823      2824      2825
         3      2826      2827      2828
         3      2829      2830      2831
         3      2832      2833      2834
         3      2835      2836      2837
         3      2838      2839      2840
         3      2841      2842      2843
         3      2844      2845      2846
         3      2847      2848      2849
         3      2850      2851      2852
         3      2853      2854      2855
         3      2856      2857      2858
         3      2859      2860      2861
         3      2862      2863      2864
         3      2865      2866      2867
         3      2868      2869      2870
         3      2871      2872      2873
         3      2874      2875      2876
         3      2877      2878      2879
         3      2880      2881      2882
         3      2883      2884      2885
         3      2886      2887      2888
         3      2889      2890      2891
         3      2892      2893      2894
         3      2895      2896      2897
         3      2898      2899      2900
         3      2901      2902      2903
         3      2904      2905      2906
         3      2907      2908      2909
         3      2910      2911      2912
         3      2913      2914      2915
         3      2916      2917      2918
         3      2919      2920      2921
         3      2922      2923      2924
         3      2925      2926      2927

CELL_TYPES 920
   5
   5
   5
   5
   5
   5
   5
   5
   5
   5
   5
   5
   5
   5
   5
   5
   5
   5
   5
   5
   5
   5
   5
   5
   5
   5
   5
   5
   5
   5
   5
   5
   5
   5
   5
   5
   5
   5
   5
   5
   5
   5
   5
   5
   5
   5
   5
   5
   5
   5
   5
   5
   5
   5
   5
   5
   5
   5
   5
   5
   5
   5
   5
   5
   5
   5
   5
   5
   5
   5
   5
   9
   5
   9
   9
   5
   5
   9
   5
   9
   9
   5
   5
   5
   5
   5
   5
   9
   5
   5
   5
   9
   5
   9
   9
   5
   5
   5
   9
   5
   9
   9
   5
   5
   5
   5
   5
   5
   5
   5
   5
   5
   5
   5
   9
   5
   5
   9
   5
   5
   9
   5
   5
   9
   5
   9
   5
   5
   9
   9
   5
   5
   5
   5
   5
   5
   9
   9
   5
   5
   5
   5
   5
   5
   9
   5
   5
   5
   5
   5
   5
   5
   5
   5
   5
   5
   5
   5
   9
   9
   5
   5
   9
   5
   5
   5
   9
   5
   9
   5
   9
   5
   5
   5
   5
   9
   5
   5
   5
   9
   5
   9
   5
   5
   5
   5
   5
   5
   5
   5
   5
   5
   5
   9
   5
   5
   9
   5
   5
   9
   5
   9
   5
   5
   5
   5
   5
   5
   9
   9
   5
   9
   5
   5
   5
   5
   5
   9
   5
   5
   5
   5
   5
   5
   5
   5
   5
   5
   9
   5
   9
   9
   5
   9
   5
   5
   5
   5
   5
   5
   5
   5
   5
   9
   5
   5
   9
   9
   5
   5
   5
   9
   5
   5
   9
   9
   5
   5
   5
   5
   5
   5
   5
   5
   9
   5
   5
   9
   5
   9
   5
   5
   5
   5
   5
   5
   5
   5
   5
   9
   5
   5
   5
   5
   9
   5
   5
   9
   9
   5
   5
   5
   5
   5
   5
   5
   9
   9
   5
   5
   9
   5
   9
   5
   5
   9
   5
   5
   9
   5
   9
   5
   9
   5
   5
   9
   9
   5
   9
   5
   5
   9
   5
   9
   5
   5
   9
   5
   5
   9
   5
   5
   9
   5
   9
   5
   5
   9
   5
   9
   5
   5
   9
   5
   5
   9
   5
   9
   5
   9
   5
   5
   9
   5
   9
   5
   5
   5
   5
   5
   5
   5
   5
   5
   5
   5
   5
   5
   9
   5
   9
   5
   5
   9
   5
   5
   9
   5
   5
   5
   5
   5
   5
   5
   5
   5
   5
   5
   5
   5
   5
   5
   5
   5
   9
   5
   9
   5
   5
   9
   5
   9
   5
   5
   5
   9
   9
   5
   5
   5
   5
   5
   5
   5
   5
   5
   5
   5
   5
   5
   5
   5
   5
   9
   5
   5
   9
   5
   9
   5
   5
   9
   5
   5
   9
   5
   5
   5
   5
   5
   5
   5
   5
   5
   5
   5
   5
   5
   5
   5
   5
   5
   5
   5
   5
   5
   5
   5
   5
   5
   5
   5
   5
   5
   5
   5
   5
   5
   5
   5
   5
   5
   5
   5
   5
   5
   5
   5
   5
   5
   5
   5
   5
   5
   5
   5
   5
   5
   5
   5
   5
   5
   5
   5
   5
   5
   5
   5
   5
   5
   5
   5
   5
   5
   5
   5
   5
   5
   5
   5
   5
   5
   5
   5
   5
   5
   5
   5
   5
   5
   5
   5
   5
   5
   5
   5
   5
   5
   5
   5
   5
   5
   5
   5
   5
   5
   5
   5
   5
   5
   5
   5
   5
   5
   5
   5
   9
   5
   5
   9
   5
   5
   5
   5
   5
   9
   9
   5
   9
   5
   5
   5
   5
   5
   5
   9
   5
   5
   9
   5
   9
   5
   5
   9
   9
   5
   5
   5
   5
   5
   9
   5
   9
   9
   5
   5
   5
   5
   5
   5
   5
   5
   5
   5
   5
   9
   5
   5
   5
   5
   5
   5
   9
   5
   5
   5
   9
   9
   5
   9
   5
   5
   5
   9
   9
   5
   5
   9
   5
   9
   5
   5
   5
   9
   5
   5
   9
   9
   5
   5
   5
   5
   5
   5
   5
   5
   5
   5
   9
   5
   9
   5
   5
   9
   5
   5
   5
   5
   5
   5
   9
   5
   5
   5
   5
   5
   5
   5
   5
   5
   5
   5
   5
   5
   5
   9
   9
   5
   5
   9
   5
   9
   5
   5
   5
   5
   5
   9
   5
   5
   9
   9
   5
   5
   5
   5
   5
   9
   5
   5
   5
   5
   5
   5
   5
   5
   5
   9
   5
   5
   9
   5
   5
   5
   5
   5
   5
   5
   5
   5
   5
   9
   5
   5
   5
   5
   5
   5
   9
   5
   9
   9
   5
   5
   5
   5
   5
   5
   5
   5
   5
   5
   9
   5
   5
   5
   5
   5
   5
   5
   5
   5
   9
   5
   5
   5
   5
   5
   5
   5
   5
   9
   5
   5
   5
   5
   5
   5
   9
   5
   5
   5
   5
   5
   9
   9
   5
   5
   9
   5
   9
   5
   5
   5
   5
   9
   5
   5
   5
   5
   5
   5
   9
   5
   5
   9
   5
   5
   9
   9
   5
   5
   5
   9
   5
   5
   5
   5
   5
   9
   9
   5
   5
   9
   5
   9
   5
   5
   5
   5
   5
   5
   5
   5
   5
   5
   5
   5
   5
   5
   5
   5
   9
   5
   5
   5
   9
   5
   5
   9
   9
   5
   5
   5
   5
   5
   5
   5
   5
   5
   5
   5
   5
   5
   5
   5
   9
   5
   9
   5
   5
   9
   5
   5
   5
   5
   5
   9
   5
   5
   5
   5
   5
   5
   5
   5
   5
   5
   5
   5
   5
   5
   9
   5
   5
   5
   5
   9
   5
   5
   5
   5
   5
   5
   5
   5
   5
   5
   5
   5
   5
   5
   5
   5
   5
   5
   5
   5
   5
   5
   5
   5
   5
   5
   5
   5
   5
   5
   5
   5
   5
   5
   5
   5
   5
   5
   5
   5
   5
   5

CELL_DATA 920
SCALARS domain int
LOOKUP_TABLE default
   2
   2
   2
   2
   2
   2
   2
   2
   2
   2
   2
   2
   2
   2
   2
   2
   2
   2
   2
   2
   2
   2
   2
   2
   2
   2
   2
   2
   2
   2
   2
   2
   2
   2
   2
   2
   2
   2
   2
   2
   2
   2
   2
   2
   2
   2
   2
   2
   2
   2
   2
   2
   2
   2
   2
   2
   2
   2
   2
   2
   2
   2
   2
   2
   2
   2
   2
   2
   2
   2
   1
   2
   1
   2
   1
   2
   1
   2
   1
   2
   1
   2
   1
   2
   2
   2
   1
   2
   2
   2
   1
   2
   1
   2
   1
   2
   1
   1
   2
   1
   2
   1
   2
   1
   2
   2
   2
   2
   2
   2
   2
   2
   2
   1
   2
   2
   2
   1
   2
   1
   1
   2
   1
   2
   1
   1
   2
   1
   2
   1
   2
   1
   2
   2
   2
   1
   2
   1
   2
   1
   1
   1
   1
   1
   1
   2
   1
   1
   2
   2
   2
   2
   2
   2
   2
   2
   2
   1
   2
   1
   2
   1
   2
   2
   1
   1
   1
   2
   1
   2
   1
   2
   1
   1
   1
   1
   2
   2
   1
   2
   1
   2
   2
   2
   2
   2
   2
   2
   2
   2
   2
   2
   1
   2
   2
   2
   1
   2
   1
   1
   2
   1
   2
   1
   1
   1
   1
   1
   2
   1
   2
   1
   2
   2
   2
   2
   1
   2
   2
   2
   2
   2
   2
   2
   2
   2
   2
   1
   2
   1
   2
   1
   2
   1
   2
   1
   1
   1
   1
   1
   1
   1
   1
   1
   2
   1
   2
   1
   2
   1
   1
   2
   2
   1
   2
   1
   2
   2
   2
   2
   2
   2
   2
   2
   1
   2
   1
   2
   1
   2
   1
   1
   1
   1
   1
   1
   1
   1
   1
   1
   2
   1
   1
   1
   2
   2
   1
   2
   1
   2
   2
   2
   2
   2
   2
   1
   2
   1
   2
   1
   2
   2
   1
   2
   1
   1
   2
   1
   2
   1
   1
   2
   1
   2
   1
   2
   1
   2
   1
   2
   1
   2
   2
   1
   2
   1
   1
   2
   1
   2
   1
   1
   1
   2
   1
   2
   1
   2
   2
   1
   2
   1
   1
   2
   1
   2
   1
   1
   2
   1
   2
   1
   2
   1
   2
   2
   2
   2
   2
   2
   2
   2
   2
   2
   2
   2
   2
   1
   2
   1
   1
   2
   1
   2
   1
   1
   1
   2
   1
   1
   2
   2
   2
   2
   2
   2
   2
   2
   2
   2
   2
   2
   2
   1
   2
   1
   1
   2
   1
   2
   1
   1
   2
   2
   1
   2
   1
   2
   2
   2
   2
   2
   2
   2
   2
   2
   2
   2
   2
   2
   2
   2
   1
   2
   2
   2
   1
   2
   1
   2
   1
   2
   2
   1
   2
   2
   2
   2
   2
   2
   2
   2
   2
   2
   2
   2
   2
   2
   2
   2
   2
   2
   2
   2
   2
   2
   2
   2
   2
   2
   2
   2
   2
   2
   2
   2
   2
   2
   2
   2
   2
   2
   2
   2
   2
   2
   2
   2
   2
   2
   2
   2
   2
   2
   2
   2
   2
   2
   2
   2
   2
   2
   2
   2
   2
   2
   2
   2
   2
   2
   2
   2
   2
   2
   2
   2
   2
   2
   2
   2
   2
   2
   2
   2
   2
   2
   2
   2
   2
   2
   2
   2
   2
   2
   2
   2
   2
   2
   2
   2
   2
   2
   2
   2
   2
   2
   2
   2
   2
   2
   2
   2
   2
   2
   2
   1
   2
   2
   2
   1
   2
   1
   1
   1
   1
   2
   1
   2
   1
   2
   1
   2
   2
   2
   1
   2
   2
   1
   2
   1
   1
   2
   1
   2
   1
   2
   1
   1
   1
   1
   2
   1
   2
   1
   2
   1
   2
   2
   2
   2
   2
   2
   2
   2
   1
   2
   2
   2
   2
   1
   1
   1
   1
   2
   1
   1
   2
   1
   2
   1
   2
   1
   1
   2
   1
   2
   1
   2
   1
   2
   1
   1
   1
   2
   2
   1
   2
   1
   2
   2
   2
   2
   2
   2
   2
   2
   2
   2
   1
   2
   1
   2
   1
   2
   2
   1
   1
   1
   1
   1
   1
   2
   1
   1
   2
   2
   2
   2
   2
   2
   2
   2
   2
   2
   1
   2
   1
   2
   1
   2
   1
   2
   1
   1
   1
   1
   2
   1
   2
   1
   2
   1
   2
   2
   2
   2
   1
   2
   2
   2
   2
   2
   2
   2
   2
   2
   1
   2
   2
   2
   1
   2
   1
   1
   1
   1
   1
   1
   1
   1
   1
   1
   2
   1
   1
   1
   2
   1
   2
   1
   2
   1
   2
   2
   2
   2
   2
   2
   2
   1
   1
   1
   1
   2
   1
   1
   1
   1
   1
   1
   1
   1
   1
   2
   1
   1
   1
   2
   2
   2
   1
   2
   2
   2
   2
   2
   2
   1
   2
   2
   2
   2
   1
   1
   2
   1
   2
   1
   2
   1
   2
   2
   2
   2
   1
   2
   2
   2
   2
   1
   1
   1
   1
   2
   1
   1
   2
   1
   2
   1
   2
   1
   1
   2
   2
   2
   2
   1
   1
   2
   1
   2
   1
   2
   1
   2
   2
   2
   2
   2
   2
   2
   2
   2
   2
   2
   2
   2
   2
   1
   1
   1
   1
   2
   1
   1
   2
   2
   1
   2
   1
   2
   2
   2
   2
   2
   2
   2
   2
   2
   2
   2
   2
   2
   2
   1
   1
   2
   1
   2
   1
   2
   1
   2
   2
   2
   1
   2
   2
   2
   2
   2
   2
   2
   2
   2
   2
   2
   2
   2
   2
   1
   2
   2
   2
   2
   1
   2
   2
   2
   2
   2
   2
   2
   2
   2
   2
   2
   2
   2
   2
   2
   2
   2
   2
   2
   2
   2
   2
   2
   2
   2
   2
   2
   2
   2
   2
   2
   2
   2
   2
   2
   2
   2
   2
   2
   2
   2
   2
   2

SCALARS E float
LOOKUP_TABLE default
   1.000e+01
   1.000e+01
   1.000e+01
   1.000e+01
   1.000e+01
   1.000e+01
   1.000e+01
   1.000e+01
   1.000e+01
   1.000e+01
   1.000e+01
   1.000e+01
   1.000e+01
   1.000e+01
   1.000e+01
   1.000e+01
   1.000e+01
   1.000e+01
   1.000e+01
   1.000e+01
   1.000e+01
   1.000e+01
   1.000e+01
   1.000e+01
   1.000e+01
   1.000e+01
   1.000e+01
   1.000e+01
   1.000e+01
   1.000e+01
   1.000e+01
   1.000e+01
   1.000e+01
   1.000e+01
   1.000e+01
   1.000e+01
   1.000e+01
   1.000e+01
   1.000e+01
   1.000e+01
   1.000e+01
   1.000e+01
   1.000e+01
   1.000e+01
   1.000e+01
   1.000e+01
   1.000e+01
   1.000e+01
   1.000e+01
   1.000e+01
   1.000e+01
   1.000e+01
   1.000e+01
   1.000e+01
   1.000e+01
   1.000e+01
   1.000e+01
   1.000e+01
   1.000e+01
   1.000e+01
   1.000e+01
   1.000e+01
   1.000e+01
   1.000e+01
   1.000e+01
   1.000e+01
   1.000e+01
   1.000e+01
   1.000e+01
   1.000e+01
   1.000e+00
   1.000e+01
   1.000e+00
   1.000e+01
   1.000e+00
   1.000e+01
   1.000e+00
   1.000e+01
   1.000e+00
   1.000e+01
   1.000e+00
   1.000e+01
   1.000e+00
   1.000e+01
   1.000e+01
   1.000e+01
   1.000e+00
   1.000e+01
   1.000e+01
   1.000e+01
   1.000e+00
   1.000e+01
   1.000e+00
   1.000e+01
   1.000e+00
   1.000e+01
   1.000e+00
   1.000e+00
   1.000e+01
   1.000e+00
   1.000e+01
   1.000e+00
   1.000e+01
   1.000e+00
   1.000e+01
   1.000e+01
   1.000e+01
   1.000e+01
   1.000e+01
   1.000e+01
   1.000e+01
   1.000e+01
   1.000e+01
   1.000e+00
   1.000e+01
   1.000e+01
   1.000e+01
   1.000e+00
   1.000e+01
   1.000e+00
   1.000e+00
   1.000e+01
   1.000e+00
   1.000e+01
   1.000e+00
   1.000e+00
   1.000e+01
   1.000e+00
   1.000e+01
   1.000e+00
   1.000e+01
   1.000e+00
   1.000e+01
   1.000e+01
   1.000e+01
   1.000e+00
   1.000e+01
   1.000e+00
   1.000e+01
   1.000e+00
   1.000e+00
   1.000e+00
   1.000e+00
   1.000e+00
   1.000e+00
   1.000e+01
   1.000e+00
   1.000e+00
   1.000e+01
   1.000e+01
   1.000e+01
   1.000e+01
   1.000e+01
   1.000e+01
   1.000e+01
   1.000e+01
   1.000e+01
   1.000e+00
   1.000e+01
   1.000e+00
   1.000e+01
   1.000e+00
   1.000e+01
   1.000e+01
   1.000e+00
   1.000e+00
   1.000e+00
   1.000e+01
   1.000e+00
   1.000e+01
   1.000e+00
   1.000e+01
   1.000e+00
   1.000e+00
   1.000e+00
   1.000e+00
   1.000e+01
   1.000e+01
   1.000e+00
   1.000e+01
   1.000e+00
   1.000e+01
   1.000e+01
   1.000e+01
   1.000e+01
   1.000e+01
   1.000e+01
   1.000e+01
   1.000e+01
   1.000e+01
   1.000e+01
   1.000e+01
   1.000e+00
   1.000e+01
   1.000e+01
   1.000e+01
   1.000e+00
   1.000e+01
   1.000e+00
   1.000e+00
   1.000e+01
   1.000e+00
   1.000e+01
   1.000e+00
   1.000e+00
   1.000e+00
   1.000e+00
   1.000e+00
   1.000e+01
   1.000e+00
   1.000e+01
   1.000e+00
   1.000e+01
   1.000e+01
   1.000e+01
   1.000e+01
   1.000e+00
   1.000e+01
   1.000e+01
   1.000e+01
   1.000e+01
   1.000e+01
   1.000e+01
   1.000e+01
   1.000e+01
   1.000e+01
   1.000e+01
   1.000e+00
   1.000e+01
   1.000e+00
   1.000e+01
   1.000e+00
   1.000e+01
   1.000e+00
   1.000e+01
   1.000e+00
   1.000e+00
   1.000e+00
   1.000e+00
   1.000e+00
   1.000e+00
   1.000e+00
   1.000e+00
   1.000e+00
   1.000e+01
   1.000e+00
   1.000e+01
   1.000e+00
   1.000e+01
   1.000e+00
   1.000e+00
   1.000e+01
   1.000e+01
   1.000e+00
   1.000e+01
   1.000e+00
   1.000e+01
   1.000e+01
   1.000e+01
   1.000e+01
   1.000e+01
   1.000e+01
   1.000e+01
   1.000e+01
   1.000e+00
   1.000e+01
   1.000e+00
   1.000e+01
   1.000e+00
   1.000e+01
   1.000e+00
   1.000e+00
   1.000e+00
   1.000e+00
   1.000e+00
   1.000e+00
   1.000e+00
   1.000e+00
   1.000e+00
   1.000e+00
   1.000e+01
   1.000e+00
   1.000e+00
   1.000e+00
   1.000e+01
   1.000e+01
   1.000e+00
   1.000e+01
   1.000e+00
   1.000e+01
   1.000e+01
   1.000e+01
   1.000e+01
   1.000e+01
   1.000e+01
   1.000e+00
   1.000e+01
   1.000e+00
   1.000e+01
   1.000e+00
   1.000e+01
   1.000e+01
   1.000e+00
   1.000e+01
   1.000e+00
   1.000e+00
   1.000e+01
   1.000e+00
   1.000e+01
   1.000e+00
   1.000e+00
   1.000e+01
   1.000e+00
   1.000e+01
   1.000e+00
   1.000e+01
   1.000e+00
   1.000e+01
   1.000e+00
   1.000e+01
   1.000e+00
   1.000e+01
   1.000e+01
   1.000e+00
   1.000e+01
   1.000e+00
   1.000e+00
   1.000e+01
   1.000e+00
   1.000e+01
   1.000e+00
   1.000e+00
   1.000e+00
   1.000e+01
   1.000e+00
   1.000e+01
   1.000e+00
   1.000e+01
   1.000e+01
   1.000e+00
   1.000e+01
   1.000e+00
   1.000e+00
   1.000e+01
   1.000e+00
   1.000e+01
   1.000e+00
   1.000e+00
   1.000e+01
   1.000e+00
   1.000e+01
   1.000e+00
   1.000e+01
   1.000e+00
   1.000e+01
   1.000e+01
   1.000e+01
   1.000e+01
   1.000e+01
   1.000e+01
   1.000e+01
   1.000e+01
   1.000e+01
   1.000e+01
   1.000e+01
   1.000e+01
   1.000e+01
   1.000e+00
   1.000e+01
   1.000e+00
   1.000e+00
   1.000e+01
   1.000e+00
   1.000e+01
   1.000e+00
   1.000e+00
   1.000e+00
   1.000e+01
   1.000e+00
   1.000e+00
   1.000e+01
   1.000e+01
   1.000e+01
   1.000e+01
   1.000e+01
   1.000e+01
   1.000e+01
   1.000e+01
   1.000e+01
   1.000e+01
   1.000e+01
   1.000e+01
   1.000e+01
   1.000e+00
   1.000e+01
   1.000e+00
   1.000e+00
   1.000e+01
   1.000e+00
   1.000e+01
   1.000e+00
   1.000e+00
   1.000e+01
   1.000e+01
   1.000e+00
   1.000e+01
   1.000e+00
   1.000e+01
   1.000e+01
   1.000e+01
   1.000e+01
   1.000e+01
   1.000e+01
   1.000e+01
   1.000e+01
   1.000e+01
   1.000e+01
   1.000e+01
   1.000e+01
   1.000e+01
   1.000e+01
   1.000e+01
   1.000e+00
   1.000e+01
   1.000e+01
   1.000e+01
   1.000e+00
   1.000e+01
   1.000e+00
   1.000e+01
   1.000e+00
   1.000e+01
   1.000e+01
   1.000e+00
   1.000e+01
   1.000e+01
   1.000e+01
   1.000e+01
   1.000e+01
   1.000e+01
   1.000e+01
   1.000e+01
   1.000e+01
   1.000e+01
   1.000e+01
   1.000e+01
   1.000e+01
   1.000e+01
   1.000e+01
   1.000e+01
   1.000e+01
   1.000e+01
   1.000e+01
   1.000e+01
   1.000e+01
   1.000e+01
   1.000e+01
   1.000e+01
   1.000e+01
   1.000e+01
   1.000e+01
   1.000e+01
   1.000e+01
   1.000e+01
   1.000e+01
   1.000e+01
   1.000e+01
   1.000e+01
   1.000e+01
   1.000e+01
   1.000e+01
   1.000e+01
   1.000e+01
   1.000e+01
   1.000e+01
   1.000e+01
   1.000e+01
   1.000e+01
   1.000e+01
   1.000e+01
   1.000e+01
   1.000e+01
   1.000e+01
   1.000e+01
   1.000e+01
   1.000e+01
   1.000e+01
   1.000e+01
   1.000e+01
   1.000e+01
   1.000e+01
   1.000e+01
   1.000e+01
   1.000e+01
   1.000e+01
   1.000e+01
   1.000e+01
   1.000e+01
   1.000e+01
   1.000e+01
   1.000e+01
   1.000e+01
   1.000e+01
   1.000e+01
   1.000e+01
   1.000e+01
   1.000e+01
   1.000e+01
   1.000e+01
   1.000e+01
   1.000e+01
   1.000e+01
   1.000e+01
   1.000e+01
   1.000e+01
   1.000e+01
   1.000e+01
   1.000e+01
   1.000e+01
   1.000e+01
   1.000e+01
   1.000e+01
   1.000e+01
   1.000e+01
   1.000e+01
   1.000e+01
   1.000e+01
   1.000e+01
   1.000e+01
   1.000e+01
   1.000e+01
   1.000e+01
   1.000e+01
   1.000e+01
   1.000e+01
   1.000e+01
   1.000e+01
   1.000e+01
   1.000e+01
   1.000e+01
   1.000e+01
   1.000e+01
   1.000e+01
   1.000e+01
   1.000e+01
   1.000e+00
   1.000e+01
   1.000e+01
   1.000e+01
   1.000e+00
   1.000e+01
   1.000e+00
   1.000e+00
   1.000e+00
   1.000e+00
   1.000e+01
   1.000e+00
   1.000e+01
   1.000e+00
   1.000e+01
   1.000e+00
   1.000e+01
   1.000e+01
   1.000e+01
   1.000e+00
   1.000e+01
   1.000e+01
   1.000e+00
   1.000e+01
   1.000e+00
   1.000e+00
   1.000e+01
   1.000e+00
   1.000e+01
   1.000e+00
   1.000e+01
   1.000e+00
   1.000e+00
   1.000e+00
   1.000e+00
   1.000e+01
   1.000e+00
   1.000e+01
   1.000e+00
   1.000e+01
   1.000e+00
   1.000e+01
   1.000e+01
   1.000e+01
   1.000e+01
   1.000e+01
   1.000e+01
   1.000e+01
   1.000e+01
   1.000e+00
   1.000e+01
   1.000e+01
   1.000e+01
   1.000e+01
   1.000e+00
   1.000e+00
   1.000e+00
   1.000e+00
   1.000e+01
   1.000e+00
   1.000e+00
   1.000e+01
   1.000e+00
   1.000e+01
   1.000e+00
   1.000e+01
   1.000e+00
   1.000e+00
   1.000e+01
   1.000e+00
   1.000e+01
   1.000e+00
   1.000e+01
   1.000e+00
   1.000e+01
   1.000e+00
   1.000e+00
   1.000e+00
   1.000e+01
   1.000e+01
   1.000e+00
   1.000e+01
   1.000e+00
   1.000e+01
   1.000e+01
   1.000e+01
   1.000e+01
   1.000e+01
   1.000e+01
   1.000e+01
   1.000e+01
   1.000e+01
   1.000e+01
   1.000e+00
   1.000e+01
   1.000e+00
   1.000e+01
   1.000e+00
   1.000e+01
   1.000e+01
   1.000e+00
   1.000e+00
   1.000e+00
   1.000e+00
   1.000e+00
   1.000e+00
   1.000e+01
   1.000e+00
   1.000e+00
   1.000e+01
   1.000e+01
   1.000e+01
   1.000e+01
   1.000e+01
   1.000e+01
   1.000e+01
   1.000e+01
   1.000e+01
   1.000e+01
   1.000e+00
   1.000e+01
   1.000e+00
   1.000e+01
   1.000e+00
   1.000e+01
   1.000e+00
   1.000e+01
   1.000e+00
   1.000e+00
   1.000e+00
   1.000e+00
   1.000e+01
   1.000e+00
   1.000e+01
   1.000e+00
   1.000e+01
   1.000e+00
   1.000e+01
   1.000e+01
   1.000e+01
   1.000e+01
   1.000e+00
   1.000e+01
   1.000e+01
   1.000e+01
   1.000e+01
   1.000e+01
   1.000e+01
   1.000e+01
   1.000e+01
   1.000e+01
   1.000e+00
   1.000e+01
   1.000e+01
   1.000e+01
   1.000e+00
   1.000e+01
   1.000e+00
   1.000e+00
   1.000e+00
   1.000e+00
   1.000e+00
   1.000e+00
   1.000e+00
   1.000e+00
   1.000e+00
   1.000e+00
   1.000e+01
   1.000e+00
   1.000e+00
   1.000e+00
   1.000e+01
   1.000e+00
   1.000e+01
   1.000e+00
   1.000e+01
   1.000e+00
   1.000e+01
   1.000e+01
   1.000e+01
   1.000e+01
   1.000e+01
   1.000e+01
   1.000e+01
   1.000e+00
   1.000e+00
   1.000e+00
   1.000e+00
   1.000e+01
   1.000e+00
   1.000e+00
   1.000e+00
   1.000e+00
   1.000e+00
   1.000e+00
   1.000e+00
   1.000e+00
   1.000e+00
   1.000e+01
   1.000e+00
   1.000e+00
   1.000e+00
   1.000e+01
   1.000e+01
   1.000e+01
   1.000e+00
   1.000e+01
   1.000e+01
   1.000e+01
   1.000e+01
   1.000e+01
   1.000e+01
   1.000e+00
   1.000e+01
   1.000e+01
   1.000e+01
   1.000e+01
   1.000e+00
   1.000e+00
   1.000e+01
   1.000e+00
   1.000e+01
   1.000e+00
   1.000e+01
   1.000e+00
   1.000e+01
   1.000e+01
   1.000e+01
   1.000e+01
   1.000e+00
   1.000e+01
   1.000e+01
   1.000e+01
   1.000e+01
   1.000e+00
   1.000e+00
   1.000e+00
   1.000e+00
   1.000e+01
   1.000e+00
   1.000e+00
   1.000e+01
   1.000e+00
   1.000e+01
   1.000e+00
   1.000e+01
   1.000e+00
   1.000e+00
   1.000e+01
   1.000e+01
   1.000e+01
   1.000e+01
   1.000e+00
   1.000e+00
   1.000e+01
   1.000e+00
   1.000e+01
   1.000e+00
   1.000e+01
   1.000e+00
   1.000e+01
   1.000e+01
   1.000e+01
   1.000e+01
   1.000e+01
   1.000e+01
   1.000e+01
   1.000e+01
   1.000e+01
   1.000e+01
   1.000e+01
   1.000e+01
   1.000e+01
   1.000e+01
   1.000e+00
   1.000e+00
   1.000e+00
   1.000e+00
   1.000e+01
   1.000e+00
   1.000e+00
   1.000e+01
   1.000e+01
   1.000e+00
   1.000e+01
   1.000e+00
   1.000e+01
   1.000e+01
   1.000e+01
   1.000e+01
   1.000e+01
   1.000e+01
   1.000e+01
   1.000e+01
   1.000e+01
   1.000e+01
   1.000e+01
   1.000e+01
   1.000e+01
   1.000e+01
   1.000e+00
   1.000e+00
   1.000e+01
   1.000e+00
   1.000e+01
   1.000e+00
   1.000e+01
   1.000e+00
   1.000e+01
   1.000e+01
   1.000e+01
   1.000e+00
   1.000e+01
   1.000e+01
   1.000e+01
   1.000e+01
   1.000e+01
   1.000e+01
   1.000e+01
   1.000e+01
   1.000e+01
   1.000e+01
   1.000e+01
   1.000e+01
   1.000e+01
   1.000e+01
   1.000e+00
   1.000e+01
   1.000e+01
   1.000e+01
   1.000e+01
   1.000e+00
   1.000e+01
   1.000e+01
   1.000e+01
   1.000e+01
   1.000e+01
   1.000e+01
   1.000e+01
   1.000e+01
   1.000e+01
   1.000e+01
   1.000e+01
   1.000e+01
   1.000e+01
   1.000e+01
   1.000e+01
   1.000e+01
   1.000e+01
   1.000e+01
   1.000e+01
   1.000e+01
   1.000e+01
   1.000e+01
   1.000e+01
   1.000e+01
   1.000e+01
   1.000e+01
   1.000e+01
   1.000e+01
   1.000e+01
   1.000e+01
   1.000e+01
   1.000e+01
   1.000e+01
   1.000e+01
   1.000e+01
   1.000e+01
   1.000e+01
   1.000e+01
   1.000e+01
   1.000e+01
   1.000e+01
   1.000e+01
   1.000e+01

SCALARS vonMisesStress float
LOOKUP_TABLE default
   0.000e+00
   0.000e+00
   0.000e+00
   0.000e+00
   0.000e+00
   0.000e+00
   0.000e+00
   0.000e+00
   0.000e+00
   0.000e+00
   0.000e+00
   0.000e+00
   0.000e+00
   0.000e+00
   0.000e+00
   0.000e+00
   0.000e+00
   0.000e+00
   0.000e+00
   0.000e+00
   0.000e+00
   0.000e+00
   0.000e+00
   0.000e+00
   0.000e+00
   0.000e+00
   0.000e+00
   0.000e+00
   0.000e+00
   0.000e+00
   0.000e+00
   0.000e+00
   0.000e+00
   0.000e+00
   0.000e+00
   0.000e+00
   0.000e+00
   0.000e+00
   0.000e+00
   0.000e+00
   0.000e+00
   0.000e+00
   0.000e+00
   0.000e+00
   0.000e+00
   0.000e+00
   0.000e+00
   0.000e+00
   0.000e+00
   0.000e+00
   0.000e+00
   0.000e+00
   0.000e+00
   0.000e+00
   0.000e+00
   0.000e+00
   0.000e+00
   0.000e+00
   0.000e+00
   0.000e+00
   0.000e+00
   0.000e+00
   0.000e+00
   0.000e+00
   0.000e+00
   0.000e+00
   0.000e+00
   0.000e+00
   0.000e+00
   0.000e+00
   0.000e+00
   0.000e+00
   0.000e+00
   0.000e+00
   0.000e+00
   0.000e+00
   0.000e+00
   0.000e+00
   0.000e+00
   0.000e+00
   0.000e+00
   0.000e+00
   0.000e+00
   0.000e+00
   0.000e+00
   0.000e+00
   0.000e+00
   0.000e+00
   0.000e+00
   0.000e+00
   0.000e+00
   0.000e+00
   0.000e+00
   0.000e+00
   0.000e+00
   0.000e+00
   0.000e+00
   0.000e+00
   0.000e+00
   0.000e+00
   0.000e+00
   0.000e+00
   0.000e+00
   0.000e+00
   0.000e+00
   0.000e+00
   0.000e+00
   0.000e+00
   0.000e+00
   0.000e+00
   0.000e+00
   0.000e+00
   0.000e+00
   0.000e+00
   0.000e+00
   0.000e+00
   0.000e+00
   0.000e+00
   0.000e+00
   0.000e+00
   0.000e+00
   0.000e+00
   0.000e+00
   0.000e+00
   0.000e+00
   0.000e+00
   0.000e+00
   0.000e+00
   0.000e+00
   0.000e+00
   0.000e+00
   0.000e+00
   0.000e+00
   0.000e+00
   0.000e+00
   0.000e+00
   0.000e+00
   0.000e+00
   0.000e+00
   0.000e+00
   0.000e+00
   0.000e+00
   0.000e+00
   0.000e+00
   0.000e+00
   0.000e+00
   0.000e+00
   0.000e+00
   0.000e+00
   0.000e+00
   0.000e+00
   0.000e+00
   0.000e+00
   0.000e+00
   0.000e+00
   0.000e+00
   0.000e+00
   0.000e+00
   0.000e+00
   0.000e+00
   0.000e+00
   0.000e+00
   0.000e+00
   0.000e+00
   0.000e+00
   0.000e+00
   0.000e+00
   0.000e+00
   0.000e+00
   0.000e+00
   0.000e+00
   0.000e+00
   0.000e+00
   0.000e+00
   0.000e+00
   0.000e+00
   0.000e+00
   0.000e+00
   0.000e+00
   0.000e+00
   0.000e+00
   0.000e+00
   0.000e+00
   0.000e+00
   0.000e+00
   0.000e+00
   0.000e+00
   0.000e+00
   0.000e+00
   0.000e+00
   0.000e+00
   0.000e+00
   0.000e+00
   0.000e+00
   0.000e+00
   0.000e+00
   0.000e+00
   0.000e+00
   0.000e+00
   0.000e+00
   0.000e+00
   0.000e+00
   0.000e+00
   0.000e+00
   0.000e+00
   0.000e+00
   0.000e+00
   0.000e+00
   0.000e+00
   0.000e+00
   0.000e+00
   0.000e+00
   0.000e+00
   0.000e+00
   0.000e+00
   0.000e+00
   0.000e+00
   0.000e+00
   0.000e+00
   0.000e+00
   0.000e+00
   0.000e+00
   0.000e+00
   0.000e+00
   0.000e+00
   0.000e+00
   0.000e+00
   0.000e+00
   0.000e+00
   0.000e+00
   0.000e+00
   0.000e+00
   0.000e+00
   0.000e+00
   0.000e+00
   0.000e+00
   0.000e+00
   0.000e+00
   0.000e+00
   0.000e+00
   0.000e+00
   0.000e+00
   0.000e+00
   0.000e+00
   0.000e+00
   0.000e+00
   0.000e+00
   0.000e+00
   0.000e+00
   0.000e+00
   0.000e+00
   0.000e+00
   0.000e+00
   0.000e+00
   0.000e+00
   0.000e+00
   0.000e+00
   0.000e+00
   0.000e+00
   0.000e+00
   0.000e+00
   0.000e+00
   0.000e+00
   0.000e+00
   0.000e+00
   0.000e+00
   0.000e+00
   0.000e+00
   0.000e+00
   0.000e+00
   0.000e+00
   0.000e+00
   0.000e+00
   0.000e+00
   0.000e+00
   0.000e+00
   0.000e+00
   0.000e+00
   0.000e+00
   0.000e+00
   0.000e+00
   0.000e+00
   0.000e+00
   0.000e+00
   0.000e+00
   0.000e+00
   0.000e+00
   0.000e+00
   0.000e+00
   0.000e+00
   0.000e+00
   0.000e+00
   0.000e+00
   0.000e+00
   0.000e+00
   0.000e+00
   0.000e+00
   0.000e+00
   0.000e+00
   0.000e+00
   0.000e+00
   0.000e+00
   0.000e+00
   0.000e+00
   0.000e+00
   0.000e+00
   0.000e+00
   0.000e+00
   0.000e+00
   0.000e+00
   0.000e+00
   0.000e+00
   0.000e+00
   0.000e+00
   0.000e+00
   0.000e+00
   0.000e+00
   0.000e+00
   0.000e+00
   0.000e+00
   0.000e+00
   0.000e+00
   0.000e+00
   0.000e+00
   0.000e+00
   0.000e+00
   0.000e+00
   0.000e+00
   0.000e+00
   0.000e+00
   0.000e+00
   0.000e+00
   0.000e+00
   0.000e+00
   0.000e+00
   0.000e+00
   0.000e+00
   0.000e+00
   0.000e+00
   0.000e+00
   0.000e+00
   0.000e+00
   0.000e+00
   0.000e+00
   0.000e+00
   0.000e+00
   0.000e+00
   0.000e+00
   0.000e+00
   0.000e+00
   0.000e+00
   0.000e+00
   0.000e+00
   0.000e+00
   0.000e+00
   0.000e+00
   0.000e+00
   0.000e+00
   0.000e+00
   0.000e+00
   0.000e+00
   0.000e+00
   0.000e+00
   0.000e+00
   0.000e+00
   0.000e+00
   0.000e+00
   0.000e+00
   0.000e+00
   0.000e+00
   0.000e+00
   0.000e+00
   0.000e+00
   0.000e+00
   0.000e+00
   0.000e+00
   0.000e+00
   0.000e+00
   0.000e+00
   0.000e+00
   0.000e+00
   0.000e+00
   0.000e+00
   0.000e+00
   0.000e+00
   0.000e+00
   0.000e+00
   0.000e+00
   0.000e+00
   0.000e+00
   0.000e+00
   0.000e+00
   0.000e+00
   0.000e+00
   0.000e+00
   0.000e+00
   0.000e+00
   0.000e+00
   0.000e+00
   0.000e+00
   0.000e+00
   0.000e+00
   0.000e+00
   0.000e+00
   0.000e+00
   0.000e+00
   0.000e+00
   0.000e+00
   0.000e+00
   0.000e+00
   0.000e+00
   0.000e+00
   0.000e+00
   0.000e+00
   0.000e+00
   0.000e+00
   0.000e+00
   0.000e+00
   0.000e+00
   0.000e+00
   0.000e+00
   0.000e+00
   0.000e+00
   0.000e+00
   0.000e+00
   0.000e+00
   0.000e+00
   0.000e+00
   0.000e+00
   0.000e+00
   0.000e+00
   0.000e+00
   0.000e+00
   0.000e+00
   0.000e+00
   0.000e+00
   0.000e+00
   0.000e+00
   0.000e+00
   0.000e+00
   0.000e+00
   0.000e+00
   0.000e+00
   0.000e+00
   0.000e+00
   0.000e+00
   0.000e+00
   0.000e+00
   0.000e+00
   0.000e+00
   0.000e+00
   0.000e+00
   0.000e+00
   0.000e+00
   0.000e+00
   0.000e+00
   0.000e+00
   0.000e+00
   0.000e+00
   0.000e+00
   0.000e+00
   0.000e+00
   0.000e+00
   0.000e+00
   0.000e+00
   0.000e+00
   0.000e+00
   0.000e+00
   0.000e+00
   0.000e+00
   0.000e+00
   0.000e+00
   0.000e+00
   0.000e+00
   0.000e+00
   0.000e+00
   0.000e+00
   0.000e+00
   0.000e+00
   0.000e+00
   0.000e+00
   0.000e+00
   0.000e+00
   0.000e+00
   0.000e+00
   0.000e+00
   0.000e+00
   0.000e+00
   0.000e+00
   0.000e+00
   0.000e+00
   0.000e+00
   0.000e+00
   0.000e+00
   0.000e+00
   0.000e+00
   0.000e+00
   0.000e+00
   0.000e+00
   0.000e+00
   0.000e+00
   0.000e+00
   0.000e+00
   0.000e+00
   0.000e+00
   0.000e+00
   0.000e+00
   0.000e+00
   0.000e+00
   0.000e+00
   0.000e+00
   0.000e+00
   0.000e+00
   0.000e+00
   0.000e+00
   0.000e+00
   0.000e+00
   0.000e+00
   0.000e+00
   0.000e+00
   0.000e+00
   0.000e+00
   0.000e+00
   0.000e+00
   0.000e+00
   0.000e+00
   0.000e+00
   0.000e+00
   0.000e+00
   0.000e+00
   0.000e+00
   0.000e+00
   0.000e+00
   0.000e+00
   0.000e+00
   0.000e+00
   0.000e+00
   0.000e+00
   0.000e+00
   0.000e+00
   0.000e+00
   0.000e+00
   0.000e+00
   0.000e+00
   0.000e+00
   0.000e+00
   0.000e+00
   0.000e+00
   0.000e+00
   0.000e+00
   0.000e+00
   0.000e+00
   0.000e+00
   0.000e+00
   0.000e+00
   0.000e+00
   0.000e+00
   0.000e+00
   0.000e+00
   0.000e+00
   0.000e+00
   0.000e+00
   0.000e+00
   0.000e+00
   0.000e+00
   0.000e+00
   0.000e+00
   0.000e+00
   0.000e+00
   0.000e+00
   0.000e+00
   0.000e+00
   0.000e+00
   0.000e+00
   0.000e+00
   0.000e+00
   0.000e+00
   0.000e+00
   0.000e+00
   0.000e+00
   0.000e+00
   0.000e+00
   0.000e+00
   0.000e+00
   0.000e+00
   0.000e+00
   0.000e+00
   0.000e+00
   0.000e+00
   0.000e+00
   0.000e+00
   0.000e+00
   0.000e+00
   0.000e+00
   0.000e+00
   0.000e+00
   0.000e+00
   0.000e+00
   0.000e+00
   0.000e+00
   0.000e+00
   0.000e+00
   0.000e+00
   0.000e+00
   0.000e+00
   0.000e+00
   0.000e+00
   0.000e+00
   0.000e+00
   0.000e+00
   0.000e+00
   0.000e+00
   0.000e+00
   0.000e+00
   0.000e+00
   0.000e+00
   0.000e+00
   0.000e+00
   0.000e+00
   0.000e+00
   0.000e+00
   0.000e+00
   0.000e+00
   0.000e+00
   0.000e+00
   0.000e+00
   0.000e+00
   0.000e+00
   0.000e+00
   0.000e+00
   0.000e+00
   0.000e+00
   0.000e+00
   0.000e+00
   0.000e+00
   0.000e+00
   0.000e+00
   0.000e+00
   0.000e+00
   0.000e+00
   0.000e+00
   0.000e+00
   0.000e+00
   0.000e+00
   0.000e+00
   0.000e+00
   0.000e+00
   0.000e+00
   0.000e+00
   0.000e+00
   0.000e+00
   0.000e+00
   0.000e+00
   0.000e+00
   0.000e+00
   0.000e+00
   0.000e+00
   0.000e+00
   0.000e+00
   0.000e+00
   0.000e+00
   0.000e+00
   0.000e+00
   0.000e+00
   0.000e+00
   0.000e+00
   0.000e+00
   0.000e+00
   0.000e+00
   0.000e+00
   0.000e+00
   0.000e+00
   0.000e+00
   0.000e+00
   0.000e+00
   0.000e+00
   0.000e+00
   0.000e+00
   0.000e+00
   0.000e+00
   0.000e+00
   0.000e+00
   0.000e+00
   0.000e+00
   0.000e+00
   0.000e+00
   0.000e+00
   0.000e+00
   0.000e+00
   0.000e+00
   0.000e+00
   0.000e+00
   0.000e+00
   0.000e+00
   0.000e+00
   0.000e+00
   0.000e+00
   0.000e+00
   0.000e+00
   0.000e+00
   0.000e+00
   0.000e+00
   0.000e+00
   0.000e+00
   0.000e+00
   0.000e+00
   0.000e+00
   0.000e+00
   0.000e+00
   0.000e+00
   0.000e+00
   0.000e+00
   0.000e+00
   0.000e+00
   0.000e+00
   0.000e+00
   0.000e+00
   0.000e+00
   0.000e+00
   0.000e+00
   0.000e+00
   0.000e+00
   0.000e+00
   0.000e+00
   0.000e+00
   0.000e+00
   0.000e+00
   0.000e+00
   0.000e+00
   0.000e+00
   0.000e+00
   0.000e+00
   0.000e+00
   0.000e+00
   0.000e+00
   0.000e+00
   0.000e+00
   0.000e+00
   0.000e+00
   0.000e+00
   0.000e+00
   0.000e+00
   0.000e+00
   0.000e+00
   0.000e+00
   0.000e+00
   0.000e+00
   0.000e+00
   0.000e+00
   0.000e+00
   0.000e+00
   0.000e+00
   0.000e+00
   0.000e+00
   0.000e+00
   0.000e+00
   0.000e+00
   0.000e+00
   0.000e+00
   0.000e+00
   0.000e+00
   0.000e+00
   0.000e+00
   0.000e+00
   0.000e+00
   0.000e+00
   0.000e+00
   0.000e+00
   0.000e+00
   0.000e+00
   0.000e+00
   0.000e+00
   0.000e+00
   0.000e+00
   0.000e+00
   0.000e+00
   0.000e+00
   0.000e+00
   0.000e+00
   0.000e+00
   0.000e+00
   0.000e+00
   0.000e+00
   0.000e+00
   0.000e+00
   0.000e+00
   0.000e+00
   0.000e+00
   0.000e+00
   0.000e+00
   0.000e+00
   0.000e+00
   0.000e+00
   0.000e+00
   0.000e+00
   0.000e+00
   0.000e+00
   0.000e+00
   0.000e+00
   0.000e+00
   0.000e+00
   0.000e+00
   0.000e+00
   0.000e+00
   0.000e+00
   0.000e+00
   0.000e+00
   0.000e+00
   0.000e+00
   0.000e+00
   0.000e+00
   0.000e+00
   0.000e+00
   0.000e+00
   0.000e+00
   0.000e+00
   0.000e+00
   0.000e+00
   0.000e+00
   0.000e+00
   0.000e+00
   0.000e+00
   0.000e+00
   0.000e+00
   0.000e+00
   0.000e+00
   0.000e+00
   0.000e+00
   0.000e+00
   0.000e+00
   0.000e+00
   0.000e+00
   0.000e+00
   0.000e+00
   0.000e+00
   0.000e+00
   0.000e+00
   0.000e+00
   0.000e+00
   0.000e+00
   0.000e+00
   0.000e+00
   0.000e+00
   0.000e+00
   0.000e+00
   0.000e+00
   0.000e+00
   0.000e+00
   0.000e+00
   0.000e+00
   0.000e+00
   0.000e+00
   0.000e+00
   0.000e+00
   0.000e+00
   0.000e+00
   0.000e+00
   0.000e+00
   0.000e+00
   0.000e+00
   0.000e+00
   0.000e+00
   0.000e+00
   0.000e+00
   0.000e+00
   0.000e+00
   0.000e+00
   0.000e+00
   0.000e+00
   0.000e+00
   0.000e+00
   0.000e+00
   0.000e+00
   0.000e+00
   0.000e+00
   0.000e+00
   0.000e+00
   0.000e+00
   0.000e+00
   0.000e+00
   0.000e+00
   0.000e+00
   0.000e+00
   0.000e+00
   0.000e+00
   0.000e+00
   0.000e+00
   0.000e+00
   0.000e+00
   0.000e+00
   0.000e+00
   0.000e+00
   0.000e+00
   0.000e+00
   0.000e+00
   0.000e+00
   0.000e+00
   0.000e+00
   0.000e+00
   0.000e+00
   0.000e+00
   0.000e+00
   0.000e+00
   0.000e+00
   0.000e+00
   0.000e+00
   0.000e+00
   0.000e+00
   0.000e+00
   0.000e+00
   0.000e+00
   0.000e+00
   0.000e+00
   0.000e+00
   0.000e+00
   0.000e+00
   0.000e+00
   0.000e+00
   0.000e+00
   0.000e+00

VECTORS gradient float
  -8.955e+00  -8.955e+00   0.000e+00
  -6.830e+00  -7.859e+00   0.000e+00
  -5.102e+00  -6.912e+00   0.000e+00
  -3.715e+00  -6.116e+00   0.000e+00
  -2.610e+00  -5.474e+00   0.000e+00
  -1.730e+00  -4.994e+00   0.000e+00
  -1.011e+00  -4.679e+00   0.000e+00
  -3.886e-01  -4.521e+00   0.000e+00
   1.976e-01  -4.503e+00   0.000e+00
   8.049e-01  -4.620e+00   0.000e+00
   1.489e+00  -4.876e+00   0.000e+00
   2.310e+00  -5.287e+00   0.000e+00
   3.330e+00  -5.866e+00   0.000e+00
   4.613e+00  -6.611e+00   0.000e+00
   6.220e+00  -7.516e+00   0.000e+00
   8.208e+00  -8.571e+00   0.000e+00
  -7.860e+00  -6.831e+00   0.000e+00
  -5.875e+00  -5.878e+00   0.000e+00
  -4.286e+00  -5.052e+00   0.000e+00
  -3.039e+00  -4.354e+00   0.000e+00
  -2.082e+00  -3.787e+00   0.000e+00
  -1.359e+00  -3.364e+00   0.000e+00
  -7.980e-01  -3.098e+00   0.000e+00
  -3.153e-01  -2.976e+00   0.000e+00
   1.499e-01  -2.971e+00   0.000e+00
   6.379e-01  -3.066e+00   0.000e+00
   1.186e+00  -3.271e+00   0.000e+00
   1.849e+00  -3.617e+00   0.000e+00
   2.706e+00  -4.123e+00   0.000e+00
   3.837e+00  -4.781e+00   0.000e+00
   5.299e+00  -5.575e+00   0.000e+00
   7.144e+00  -6.499e+00   0.000e+00
  -6.918e+00  -5.104e+00   0.000e+00
  -5.053e+00  -4.296e+00   0.000e+00
  -3.579e+00  -3.594e+00   0.000e+00
  -2.446e+00  -2.993e+00   0.000e+00
  -1.608e+00  -2.487e+00   0.000e+00
  -1.036e+00  -2.099e+00   0.000e+00
  -6.444e-01  -1.897e+00   0.000e+00
  -2.812e-01  -1.848e+00   0.000e+00
   1.059e-01  -1.871e+00   0.000e+00
   5.199e-01  -1.934e+00   0.000e+00
   9.613e-01  -2.053e+00   0.000e+00
   1.461e+00  -2.308e+00   0.000e+00
   2.150e+00  -2.757e+00   0.000e+00
   3.154e+00  -3.346e+00   0.000e+00
   4.500e+00  -4.034e+00   0.000e+00
   6.228e+00  -4.822e+00   0.000e+00
  -6.133e+00  -3.719e+00   0.000e+00
  -4.367e+00  -3.060e+00   0.000e+00
  -2.988e+00  -2.488e+00   0.000e+00
  -1.933e+00  -1.993e+00   0.000e+00
  -1.154e+00  -1.535e+00   0.000e+00
  -7.164e-01  -1.082e+00   0.000e+00
  -6.346e-01  -9.757e-01   0.000e+00
  -3.250e-01  -1.120e+00   0.000e+00
   6.127e-02  -1.188e+00   0.000e+00
   4.802e-01  -1.212e+00   0.000e+00
   8.987e-01  -1.160e+00   0.000e+00
   1.121e+00  -1.199e+00   0.000e+00
   1.614e+00  -1.724e+00   0.000e+00
   2.558e+00  -2.270e+00   0.000e+00
   3.828e+00  -2.843e+00   0.000e+00
   5.462e+00  -3.489e+00   0.000e+00
  -5.507e+00  -2.615e+00   0.000e+00
  -3.824e+00  -2.106e+00   0.000e+00
  -2.525e+00  -1.673e+00   0.000e+00
  -1.532e+00  -1.318e+00   0.000e+00
  -7.101e-01  -1.002e+00   0.000e+00
  -1.600e-01  -4.854e-01   0.000e+00
  -2.466e-01  -2.955e-01   0.000e+00
  -1.600e-01  -4.854e-01   0.000e+00
  -2.466e-01  -2.955e-01   0.000e+00
  -1.600e-01  -4.854e-01   0.000e+00
  -2.466e-01  -2.955e-01   0.000e+00
  -1.600e-01  -4.854e-01   0.000e+00
   7.449e-02  -4.360e-01   0.000e+00
  -1.017e+00  -5.730e-01   0.000e+00
   7.449e-02  -4.360e-01   0.000e+00
  -1.017e+00  -5.730e-01   0.000e+00
   7.449e-02  -4.360e-01   0.000e+00
  -1.017e+00  -5.730e-01   0.000e+00
   7.449e-02  -4.360e-01   0.000e+00
  -4.423e-01  -8.292e-01   0.000e+00
  -4.423e-01  -8.292e-01   0.000e+00
  -4.423e-01  -8.292e-01   0.000e+00
   4.528e-01  -5.848e-01   0.000e+00
  -4.423e-01  -8.292e-01   0.000e+00
   1.025e-02  -9.058e-01   0.000e+00
   5.070e-01  -9.396e-01   0.000e+00
  -3.784e-02  -4.247e-01   0.000e+00
   1.225e+00  -7.470e-01   0.000e+00
  -3.784e-02  -4.247e-01   0.000e+00
   1.225e+00  -7.470e-01   0.000e+00
  -3.784e-02  -4.247e-01   0.000e+00
   1.225e+00  -7.470e-01   0.000e+00
  -3.784e-02  -4.247e-01   0.000e+00
   2.813e-01  -2.937e-01   0.000e+00
   3.529e-01  -2.996e-01   0.000e+00
   2.813e-01  -2.937e-01   0.000e+00
   3.529e-01  -2.996e-01   0.000e+00
   2.813e-01  -2.937e-01   0.000e+00
   3.529e-01  -2.996e-01   0.000e+00
   2.813e-01  -2.937e-01   0.000e+00
   1.070e+00  -1.144e+00   0.000e+00
   2.081e+00  -1.527e+00   0.000e+00
   3.295e+00  -1.947e+00   0.000e+00
   4.851e+00  -2.440e+00   0.000e+00
  -5.036e+00  -1.731e+00   0.000e+00
  -3.422e+00  -1.366e+00   0.000e+00
  -2.204e+00  -1.071e+00   0.000e+00
  -1.310e+00  -8.720e-01   0.000e+00
  -6.294e-01  -8.548e-01   0.000e+00
   1.794e+00  -3.017e+00   0.000e+00
  -6.294e-01  -8.548e-01   0.000e+00
  -6.294e-01  -8.548e-01   0.000e+00
  -6.294e-01  -8.548e-01   0.000e+00
  -3.978e-01  -6.287e-02   0.000e+00
  -2.913e-01  -1.217e+00   0.000e+00
  -3.978e-01  -6.287e-02   0.000e+00
  -3.978e-01  -6.287e-02   0.000e+00
  -2.913e-01  -1.217e+00   0.000e+00
  -3.978e-01  -6.287e-02   0.000e+00
  -2.913e-01  -1.217e+00   0.000e+00
  -8.765e-02  -2.459e-01   0.000e+00
   3.322e-01  -4.545e-01   0.000e+00
  -4.828e-01  -9.033e-01   0.000e+00
   3.322e-01  -4.545e-01   0.000e+00
  -4.828e-01  -9.033e-01   0.000e+00
   3.322e-01  -4.545e-01   0.000e+00
  -4.828e-01  -9.033e-01   0.000e+00
   3.322e-01  -4.545e-01   0.000e+00
  -5.458e-02  -9.393e-01   0.000e+00
  -5.458e-02  -9.393e-01   0.000e+00
  -5.458e-02  -9.393e-01   0.000e+00
  -5.584e-02  -1.820e+00   0.000e+00
  -5.458e-02  -9.393e-01   0.000e+00
  -2.828e-01  -4.394e-01   0.000e+00
   2.709e-01  -1.213e+00   0.000e+00
  -2.828e-01  -4.394e-01   0.000e+00
  -2.828e-01  -4.394e-01   0.000e+00
  -2.828e-01  -4.394e-01   0.000e+00
   1.202e-01  -2.408e-01   0.000e+00
   4.328e-01  -5.709e-02   0.000e+00
   4.328e-01  -5.709e-02   0.000e+00
  -7.010e-02  -1.550e+00   0.000e+00
   4.328e-01  -5.709e-02   0.000e+00
   4.328e-01  -5.709e-02   0.000e+00
   9.354e-01  -9.353e-01   0.000e+00
   1.798e+00  -1.017e+00   0.000e+00
   2.918e+00  -1.267e+00   0.000e+00
   4.398e+00  -1.609e+00   0.000e+00
  -4.713e+00  -1.005e+00   0.000e+00
  -3.151e+00  -7.721e-01   0.000e+00
  -2.007e+00  -5.895e-01   0.000e+00
  -1.231e+00  -4.913e-01   0.000e+00
  -7.859e-01  -5.320e-01   0.000e+00
  -6.024e-01   2.366e-01   0.000e+00
  -6.707e-01  -7.028e-01   0.000e+00
  -6.024e-01   2.366e-01   0.000e+00
  -6.707e-01  -7.028e-01   0.000e+00
  -6.024e-01   2.366e-01   0.000e+00
  -6.707e-01  -7.028e-01   0.000e+00
  -6.707e-01  -7.028e-01   0.000e+00
  -3.432e-01  -3.174e-02   0.000e+00
   3.104e-02  -4.020e-01   0.000e+00
  -2.618e-02  -8.000e-01   0.000e+00
  -4.720e+00   3.237e+01   0.000e+00
  -2.618e-02  -8.000e-01   0.000e+00
  -4.720e+00   3.237e+01   0.000e+00
  -2.618e-02  -8.000e-01   0.000e+00
  -4.720e+00   3.237e+01   0.000e+00
  -2.618e-02  -8.000e-01   0.000e+00
   1.075e-02  -3.754e-01   0.000e+00
   3.765e-01  -3.355e-02   0.000e+00
   6.583e-01   2.856e-01   0.000e+00
   7.193e-01  -7.687e-01   0.000e+00
   7.193e-01  -7.687e-01   0.000e+00
   6.583e-01   2.856e-01   0.000e+00
   7.193e-01  -7.687e-01   0.000e+00
   6.583e-01   2.856e-01   0.000e+00
   7.193e-01  -7.687e-01   0.000e+00
   1.029e+00  -5.938e-01   0.000e+00
   1.676e+00  -5.812e-01   0.000e+00
   2.679e+00  -7.129e-01   0.000e+00
   4.090e+00  -9.279e-01   0.000e+00
  -4.527e+00  -3.774e-01   0.000e+00
  -2.992e+00  -2.631e-01   0.000e+00
  -1.892e+00  -1.620e-01   0.000e+00
  -1.208e+00  -1.016e-01   0.000e+00
  -9.005e-01  -1.502e-01   0.000e+00
  -8.613e-01  -3.144e-01   0.000e+00
  -1.829e+00  -2.240e-01   0.000e+00
  -8.613e-01  -3.144e-01   0.000e+00
  -8.613e-01  -3.144e-01   0.000e+00
  -8.613e-01  -3.144e-01   0.000e+00
  -7.457e-01  -4.854e-02   0.000e+00
  -1.791e+00  -6.167e-01   0.000e+00
  -7.457e-01  -4.854e-02   0.000e+00
  -7.457e-01  -4.854e-02   0.000e+00
  -1.791e+00  -6.167e-01   0.000e+00
  -7.457e-01  -4.854e-02   0.000e+00
  -1.791e+00  -6.167e-01   0.000e+00
  -2.682e-01  -1.973e-01   0.000e+00
   1.120e-02  -2.753e-01   0.000e+00
   2.887e-01  -1.839e-01   0.000e+00
   8.234e-01   1.007e-01   0.000e+00
   8.234e-01   1.007e-01   0.000e+00
   9.982e-01  -8.171e-01   0.000e+00
   8.234e-01   1.007e-01   0.000e+00
   9.982e-01  -8.171e-01   0.000e+00
   8.234e-01   1.007e-01   0.000e+00
   9.982e-01  -8.171e-01   0.000e+00
   9.682e-01  -3.656e-01   0.000e+00
   9.682e-01  -3.656e-01   0.000e+00
   9.682e-01  -3.656e-01   0.000e+00
  -1.311e+00   2.125e+00   0.000e+00
   9.682e-01  -3.656e-01   0.000e+00
   1.141e+00  -1.754e-01   0.000e+00
   1.630e+00  -1.324e-01   0.000e+00
   2.536e+00  -2.128e-01   0.000e+00
   3.905e+00  -3.360e-01   0.000e+00
  -4.474e+00   2.088e-01   0.000e+00
  -2.931e+00   2.028e-01   0.000e+00
  -1.813e+00   2.420e-01   0.000e+00
  -1.161e+00   3.498e-01   0.000e+00
  -1.053e+00   3.483e-01   0.000e+00
  -3.809e-01  -4.542e-01   0.000e+00
  -1.053e+00   3.483e-01   0.000e+00
  -3.809e-01  -4.542e-01   0.000e+00
  -1.053e+00   3.483e-01   0.000e+00
  -3.809e-01  -4.542e-01   0.000e+00
  -1.053e+00   3.483e-01   0.000e+00
  -3.352e-01  -4.349e-01   0.000e+00
  -1.129e+00  -1.339e-01   0.000e+00
  -3.352e-01  -4.349e-01   0.000e+00
  -3.352e-01  -4.349e-01   0.000e+00
  -3.352e-01  -4.349e-01   0.000e+00
  -4.657e-01  -2.156e-01   0.000e+00
  -2.552e-01  -1.034e-02   0.000e+00
   9.911e-03   6.739e-03   0.000e+00
   2.877e-01  -1.853e-02   0.000e+00
   4.817e-01  -2.744e-01   0.000e+00
   3.400e-01  -4.375e-01   0.000e+00
   1.185e+00   1.278e-01   0.000e+00
   3.400e-01  -4.375e-01   0.000e+00
   1.185e+00   1.278e-01   0.000e+00
   3.400e-01  -4.375e-01   0.000e+00
   1.185e+00   1.278e-01   0.000e+00
   3.400e-01  -4.375e-01   0.000e+00
   3.904e-01  -4.551e-01   0.000e+00
   1.275e+00   3.731e-01   0.000e+00
   1.275e+00   3.731e-01   0.000e+00
   3.904e-01  -4.551e-01   0.000e+00
   1.275e+00   3.731e-01   0.000e+00
   3.904e-01  -4.551e-01   0.000e+00
   1.275e+00   3.731e-01   0.000e+00
   1.562e+00   4.008e-01   0.000e+00
   2.438e+00   2.591e-01   0.000e+00
   3.829e+00   2.122e-01   0.000e+00
  -4.567e+00   8.088e-01   0.000e+00
  -2.984e+00   6.546e-01   0.000e+00
  -1.754e+00   5.794e-01   0.000e+00
  -8.358e-01   8.245e-01   0.000e+00
  -4.471e-01  -9.263e-02   0.000e+00
  -8.358e-01   8.245e-01   0.000e+00
  -4.471e-01  -9.263e-02   0.000e+00
  -8.358e-01   8.245e-01   0.000e+00
  -4.471e-01  -9.263e-02   0.000e+00
  -8.358e-01   8.245e-01   0.000e+00
  -3.161e-01  -7.443e-03   0.000e+00
  -2.289e-01   1.096e-01   0.000e+00
  -2.120e-01   3.166e-01   0.000e+00
  -2.742e-01   3.858e-01   0.000e+00
  -5.995e-04   2.577e-01   0.000e+00
   2.755e-01   3.211e-01   0.000e+00
   2.411e-01   3.307e-01   0.000e+00
   2.422e-01   1.122e-01   0.000e+00
   3.393e-01   2.562e-05   0.000e+00
   3.393e-01   2.562e-05   0.000e+00
   2.256e+00   9.363e-01   0.000e+00
   3.393e-01   2.562e-05   0.000e+00
   3.393e-01   2.562e-05   0.000e+00
   4.477e-01  -2.889e-02   0.000e+00
   1.190e+00   8.522e-01   0.000e+00
   1.190e+00   8.522e-01   0.000e+00
   4.477e-01  -2.889e-02   0.000e+00
   1.190e+00   8.522e-01   0.000e+00
   4.477e-01  -2.889e-02   0.000e+00
   1.190e+00   8.522e-01   0.000e+00
   2.380e+00   6.460e-01   0.000e+00
   3.886e+00   7.505e-01   0.000e+00
  -4.830e+00   1.483e+00   0.000e+00
  -3.204e+00   1.151e+00   0.000e+00
  -1.909e+00   8.339e-01   0.000e+00
  -3.634e-01   3.000e-01   0.000e+00
  -8.590e-01   2.756e-01   0.000e+00
  -3.634e-01   3.000e-01   0.000e+00
  -8.590e-01   2.756e-01   0.000e+00
  -3.634e-01   3.000e-01   0.000e+00
  -8.590e-01   2.756e-01   0.000e+00
  -8.590e-01   2.756e-01   0.000e+00
  -2.110e-01   3.884e-01   0.000e+00
  -1.261e+00  -2.565e-01   0.000e+00
  -2.110e-01   3.884e-01   0.000e+00
  -2.110e-01   3.884e-01   0.000e+00
  -1.261e+00  -2.565e-01   0.000e+00
  -2.110e-01   3.884e-01   0.000e+00
  -1.261e+00  -2.565e-01   0.000e+00
  -4.160e-02   5.392e-01   0.000e+00
  -4.160e-02   5.392e-01   0.000e+00
  -1.092e+00   2.332e-01   0.000e+00
  -4.160e-02   5.392e-01   0.000e+00
  -1.092e+00   2.332e-01   0.000e+00
  -4.160e-02   5.392e-01   0.000e+00
  -1.092e+00   2.332e-01   0.000e+00
   2.275e-01   9.654e-01   0.000e+00
  -8.402e-01   5.859e-01   0.000e+00
   2.275e-01   9.654e-01   0.000e+00
  -8.402e-01   5.859e-01   0.000e+00
   2.275e-01   9.654e-01   0.000e+00
  -8.402e-01   5.859e-01   0.000e+00
  -8.402e-01   5.859e-01   0.000e+00
  -6.933e-01   3.971e-01   0.000e+00
  -4.812e-01   9.077e-01   0.000e+00
  -6.933e-01   3.971e-01   0.000e+00
  -6.933e-01   3.971e-01   0.000e+00
  -4.812e-01   9.077e-01   0.000e+00
  -6.933e-01   3.971e-01   0.000e+00
  -4.812e-01   9.077e-01   0.000e+00
   5.017e-03   3.376e-01   0.000e+00
   6.251e-01   5.774e-01   0.000e+00
  -1.546e-01   5.804e-01   0.000e+00
   7.642e-01   6.609e-01   0.000e+00
  -1.546e-01   5.804e-01   0.000e+00
   7.642e-01   6.609e-01   0.000e+00
  -1.546e-01   5.804e-01   0.000e+00
   7.642e-01   6.609e-01   0.000e+00
   7.642e-01   6.609e-01   0.000e+00
   6.062e-02   5.212e-01   0.000e+00
   1.229e+00   4.407e-01   0.000e+00
   6.062e-02   5.212e-01   0.000e+00
   6.062e-02   5.212e-01   0.000e+00
   1.229e+00   4.407e-01   0.000e+00
   6.062e-02   5.212e-01   0.000e+00
   1.229e+00   4.407e-01   0.000e+00
   2.470e-01   3.860e-01   0.000e+00
   2.470e-01   3.860e-01   0.000e+00
   1.511e+00   1.164e-01   0.000e+00
   2.470e-01   3.860e-01   0.000e+00
   1.511e+00   1.164e-01   0.000e+00
   2.470e-01   3.860e-01   0.000e+00
   1.511e+00   1.164e-01   0.000e+00
   4.149e-01   3.630e-01   0.000e+00
   1.354e+00   3.708e-01   0.000e+00
   1.354e+00   3.708e-01   0.000e+00
   1.354e+00   3.708e-01   0.000e+00
   1.354e+00   3.708e-01   0.000e+00
   2.608e+00   9.840e-01   0.000e+00
   4.141e+00   1.346e+00   0.000e+00
  -5.269e+00   2.300e+00   0.000e+00
  -3.604e+00   1.801e+00   0.000e+00
  -2.335e+00   1.334e+00   0.000e+00
  -1.493e+00   8.728e-01   0.000e+00
  -1.094e+00   6.260e-01   0.000e+00
  -8.136e-01   6.721e-01   0.000e+00
  -5.347e-01   8.550e-01   0.000e+00
  -5.474e-01   1.798e-01   0.000e+00
  -2.100e-01   1.136e+00   0.000e+00
  -5.474e-01   1.798e-01   0.000e+00
  -5.474e-01   1.798e-01   0.000e+00
  -2.100e-01   1.136e+00   0.000e+00
  -5.474e-01   1.798e-01   0.000e+00
  -2.100e-01   1.136e+00   0.000e+00
   1.890e-02   2.688e-01   0.000e+00
   5.720e-01   1.885e-01   0.000e+00
   5.720e-01   1.885e-01   0.000e+00
   2.760e-01   1.077e+00   0.000e+00
   5.720e-01   1.885e-01   0.000e+00
   5.720e-01   1.885e-01   0.000e+00
   5.574e-01   8.976e-01   0.000e+00
   9.907e-01   7.722e-01   0.000e+00
   1.424e+00   7.597e-01   0.000e+00
   2.012e+00   1.078e+00   0.000e+00
   3.072e+00   1.576e+00   0.000e+00
   4.593e+00   2.101e+00   0.000e+00
  -5.872e+00   3.324e+00   0.000e+00
  -4.145e+00   2.683e+00   0.000e+00
  -2.827e+00   2.120e+00   0.000e+00
  -1.886e+00   1.652e+00   0.000e+00
  -1.248e+00   1.336e+00   0.000e+00
  -7.810e-01   1.196e+00   0.000e+00
  -3.557e-01   1.213e+00   0.000e+00
  -4.237e-01   2.736e-01   0.000e+00
   1.927e-01   1.419e+00   0.000e+00
  -4.237e-01   2.736e-01   0.000e+00
  -4.237e-01   2.736e-01   0.000e+00
   1.927e-01   1.419e+00   0.000e+00
  -4.237e-01   2.736e-01   0.000e+00
   1.927e-01   1.419e+00   0.000e+00
   2.730e-02   3.126e-01   0.000e+00
   4.599e-01   2.805e-01   0.000e+00
  -9.643e-02   1.346e+00   0.000e+00
  -9.643e-02   1.346e+00   0.000e+00
   4.599e-01   2.805e-01   0.000e+00
  -9.643e-02   1.346e+00   0.000e+00
   4.599e-01   2.805e-01   0.000e+00
  -9.643e-02   1.346e+00   0.000e+00
   4.752e-01   1.230e+00   0.000e+00
   1.023e+00   1.311e+00   0.000e+00
   1.641e+00   1.524e+00   0.000e+00
   2.461e+00   1.912e+00   0.000e+00
   3.624e+00   2.446e+00   0.000e+00
   5.200e+00   3.080e+00   0.000e+00
  -6.627e+00   4.612e+00   0.000e+00
  -4.807e+00   3.836e+00   0.000e+00
  -3.392e+00   3.167e+00   0.000e+00
  -2.326e+00   2.618e+00   0.000e+00
  -1.535e+00   2.203e+00   0.000e+00
  -9.225e-01   1.923e+00   0.000e+00
  -3.728e-01   1.748e+00   0.000e+00
   3.210e-01   1.544e+00   0.000e+00
  -3.507e-01   3.760e-01   0.000e+00
   3.210e-01   1.544e+00   0.000e+00
   3.210e-01   1.544e+00   0.000e+00
   3.210e-01   1.544e+00   0.000e+00
   3.267e-02   4.130e-01   0.000e+00
   1.307e-01   8.705e-01   0.000e+00
   3.267e-02   4.130e-01   0.000e+00
   1.307e-01   8.705e-01   0.000e+00
   3.267e-02   4.130e-01   0.000e+00
   1.307e-01   8.705e-01   0.000e+00
   1.307e-01   8.705e-01   0.000e+00
   2.537e-01   7.855e-01   0.000e+00
  -2.026e-02   1.450e+00   0.000e+00
  -2.026e-02   1.450e+00   0.000e+00
  -2.026e-02   1.450e+00   0.000e+00
  -2.026e-02   1.450e+00   0.000e+00
   6.221e-01   1.795e+00   0.000e+00
   1.255e+00   2.073e+00   0.000e+00
   2.006e+00   2.442e+00   0.000e+00
   2.977e+00   2.942e+00   0.000e+00
   4.263e+00   3.573e+00   0.000e+00
   5.940e+00   4.325e+00   0.000e+00
  -7.529e+00   6.221e+00   0.000e+00
  -5.593e+00   5.308e+00   0.000e+00
  -4.056e+00   4.524e+00   0.000e+00
  -2.860e+00   3.872e+00   0.000e+00
  -1.935e+00   3.355e+00   0.000e+00
  -1.206e+00   2.962e+00   0.000e+00
  -5.988e-01   2.659e+00   0.000e+00
  -1.016e-01   2.377e+00   0.000e+00
   1.550e-01   2.195e+00   0.000e+00
   4.145e-01   2.418e+00   0.000e+00
   9.450e-01   2.766e+00   0.000e+00
   1.634e+00   3.161e+00   0.000e+00
   2.497e+00   3.650e+00   0.000e+00
   3.600e+00   4.262e+00   0.000e+00
   5.016e+00   5.008e+00   0.000e+00
   6.814e+00   5.888e+00   0.000e+00
  -8.577e+00   8.211e+00   0.000e+00
  -6.506e+00   7.156e+00   0.000e+00
  -4.829e+00   6.251e+00   0.000e+00
  -3.493e+00   5.495e+00   0.000e+00
  -2.433e+00   4.885e+00   0.000e+00
  -1.585e+00   4.409e+00   0.000e+00
  -8.921e-01   4.052e+00   0.000e+00
  -3.153e-01   3.809e+00   0.000e+00
   1.818e-01   3.731e+00   0.000e+00
   6.941e-01   3.878e+00   0.000e+00
   1.324e+00   4.202e+00   0.000e+00
   2.112e+00   4.656e+00   0.000e+00
   3.096e+00   5.236e+00   0.000e+00
   4.336e+00   5.953e+00   0.000e+00
   5.892e+00   6.816e+00   0.000e+00
   7.830e+00   7.829e+00   0.000e+00
  -7.837e+00  -7.838e+00   0.000e+00
  -5.897e+00  -6.834e+00   0.000e+00
  -4.338e+00  -5.975e+00   0.000e+00
  -3.101e+00  -5.260e+00   0.000e+00
  -2.131e+00  -4.696e+00   0.000e+00
  -1.366e+00  -4.289e+00   0.000e+00
  -7.377e-01  -4.041e+00   0.000e+00
  -1.807e-01  -3.939e+00   0.000e+00
   3.634e-01  -3.966e+00   0.000e+00
   9.455e-01  -4.118e+00   0.000e+00
   1.618e+00  -4.408e+00   0.000e+00
   2.444e+00  -4.852e+00   0.000e+00
   3.490e+00  -5.461e+00   0.000e+00
   4.822e+00  -6.228e+00   0.000e+00
   6.499e+00  -7.144e+00   0.000e+00
   8.571e+00  -8.208e+00   0.000e+00
  -6.836e+00  -5.900e+00   0.000e+00
  -5.029e+00  -5.034e+00   0.000e+00
  -3.601e+00  -4.289e+00   0.000e+00
  -2.498e+00  -3.662e+00   0.000e+00
  -1.672e+00  -3.161e+00   0.000e+00
  -1.065e+00  -2.805e+00   0.000e+00
  -5.876e-01  -2.611e+00   0.000e+00
  -1.544e-01  -2.547e+00   0.000e+00
   2.834e-01  -2.576e+00   0.000e+00
   7.538e-01  -2.691e+00   0.000e+00
   1.288e+00  -2.914e+00   0.000e+00
   1.953e+00  -3.288e+00   0.000e+00
   2.842e+00  -3.825e+00   0.000e+00
   4.033e+00  -4.500e+00   0.000e+00
   5.575e+00  -5.299e+00   0.000e+00
   7.516e+00  -6.220e+00   0.000e+00
  -5.984e+00  -4.345e+00   0.000e+00
  -4.288e+00  -3.618e+00   0.000e+00
  -2.966e+00  -2.990e+00   0.000e+00
  -1.964e+00  -2.449e+00   0.000e+00
  -1.251e+00  -1.986e+00   0.000e+00
  -8.216e-01  -1.655e+00   0.000e+00
  -5.091e-01  -1.555e+00   0.000e+00
  -1.630e-01  -1.571e+00   0.000e+00
   2.237e-01  -1.612e+00   0.000e+00
   6.370e-01  -1.666e+00   0.000e+00
   1.048e+00  -1.769e+00   0.000e+00
   1.523e+00  -2.055e+00   0.000e+00
   2.260e+00  -2.558e+00   0.000e+00
   3.345e+00  -3.157e+00   0.000e+00
   4.782e+00  -3.837e+00   0.000e+00
   6.612e+00  -4.613e+00   0.000e+00
  -5.283e+00  -3.112e+00   0.000e+00
  -3.680e+00  -2.529e+00   0.000e+00
  -2.443e+00  -2.030e+00   0.000e+00
  -1.497e+00  -1.593e+00   0.000e+00
  -7.872e-01  -1.129e+00   0.000e+00
  -6.254e-01  -6.288e-01   0.000e+00
  -6.252e-01  -8.371e-01   0.000e+00
  -2.277e-01  -1.005e+00   0.000e+00
   1.858e-01  -1.064e+00   0.000e+00
   6.486e-01  -1.047e+00   0.000e+00
   1.062e+00  -8.331e-01   0.000e+00
   1.030e+00  -1.018e+00   0.000e+00
   1.711e+00  -1.645e+00   0.000e+00
   2.764e+00  -2.157e+00   0.000e+00
   4.126e+00  -2.705e+00   0.000e+00
   5.866e+00  -3.329e+00   0.000e+00
  -4.734e+00  -2.139e+00   0.000e+00
  -3.211e+00  -1.702e+00   0.000e+00
  -2.052e+00  -1.344e+00   0.000e+00
  -1.161e+00  -1.076e+00   0.000e+00
  -3.262e-01  -9.028e-01   0.000e+00
  -2.674e+00  -8.287e-01   0.000e+00
  -3.262e-01  -9.028e-01   0.000e+00
  -3.262e-01  -9.028e-01   0.000e+00
  -3.262e-01  -9.028e-01   0.000e+00
  -2.009e-01  -2.790e-01   0.000e+00
  -5.388e-01  -9.006e-01   0.000e+00
  -2.009e-01  -2.790e-01   0.000e+00
  -2.009e-01  -2.790e-01   0.000e+00
  -2.009e-01  -2.790e-01   0.000e+00
   1.514e-01  -4.205e-01   0.000e+00
  -9.318e-01  -7.013e-01   0.000e+00
   1.514e-01  -4.205e-01   0.000e+00
  -9.318e-01  -7.013e-01   0.000e+00
   1.514e-01  -4.205e-01   0.000e+00
  -9.318e-01  -7.013e-01   0.000e+00
   1.514e-01  -4.205e-01   0.000e+00
  -3.129e-01  -8.459e-01   0.000e+00
  -3.129e-01  -8.459e-01   0.000e+00
  -3.129e-01  -8.459e-01   0.000e+00
   5.992e-01  -5.238e-01   0.000e+00
  -3.129e-01  -8.459e-01   0.000e+00
   1.426e-01  -9.124e-01   0.000e+00
  -2.520e-01  -4.597e-01   0.000e+00
   7.288e-01  -9.397e-01   0.000e+00
  -2.520e-01  -4.597e-01   0.000e+00
  -2.520e-01  -4.597e-01   0.000e+00
   7.288e-01  -9.397e-01   0.000e+00
  -2.520e-01  -4.597e-01   0.000e+00
   7.288e-01  -9.397e-01   0.000e+00
   1.186e-01  -3.162e-01   0.000e+00
   2.093e+00  -7.089e+00   0.000e+00
   1.186e-01  -3.162e-01   0.000e+00
   1.186e-01  -3.162e-01   0.000e+00
   1.186e-01  -3.162e-01   0.000e+00
   4.301e-01  -1.661e-01   0.000e+00
   1.039e-01  -9.125e-01   0.000e+00
   4.301e-01  -1.661e-01   0.000e+00
   1.039e-01  -9.125e-01   0.000e+00
   4.301e-01  -1.661e-01   0.000e+00
   1.039e-01  -9.125e-01   0.000e+00
   4.301e-01  -1.661e-01   0.000e+00
   1.292e+00  -1.152e+00   0.000e+00
   2.328e+00  -1.452e+00   0.000e+00
   3.620e+00  -1.841e+00   0.000e+00
   5.283e+00  -2.307e+00   0.000e+00
  -4.334e+00  -1.363e+00   0.000e+00
  -2.879e+00  -1.062e+00   0.000e+00
  -1.808e+00  -8.348e-01   0.000e+00
  -1.051e+00  -7.211e-01   0.000e+00
   9.810e-01   7.919e-02   0.000e+00
  -5.555e-01  -8.392e-01   0.000e+00
  -5.555e-01  -8.392e-01   0.000e+00
  -5.555e-01  -8.392e-01   0.000e+00
  -5.555e-01  -8.392e-01   0.000e+00
  -3.634e-01  -3.788e-02   0.000e+00
  -3.634e-01  -3.788e-02   0.000e+00
  -3.634e-01  -3.788e-02   0.000e+00
  -3.634e-01  -3.788e-02   0.000e+00
  -4.797e-01  -1.254e+00   0.000e+00
  -3.984e-02  -2.612e-01   0.000e+00
   4.521e-01  -5.194e-01   0.000e+00
  -3.505e-01  -9.506e-01   0.000e+00
   4.521e-01  -5.194e-01   0.000e+00
  -3.505e-01  -9.506e-01   0.000e+00
   4.521e-01  -5.194e-01   0.000e+00
  -3.505e-01  -9.506e-01   0.000e+00
   4.521e-01  -5.194e-01   0.000e+00
  -3.729e-01  -5.510e-01   0.000e+00
   7.820e-02  -1.142e+00   0.000e+00
  -3.729e-01  -5.510e-01   0.000e+00
   7.820e-02  -1.142e+00   0.000e+00
  -3.729e-01  -5.510e-01   0.000e+00
   7.820e-02  -1.142e+00   0.000e+00
  -3.729e-01  -5.510e-01   0.000e+00
   7.820e-02  -1.142e+00   0.000e+00
  -6.797e-02  -3.368e-01   0.000e+00
   3.008e-01  -1.008e-01   0.000e+00
   5.762e-01   9.152e-02   0.000e+00
   6.136e-01  -9.803e-01   0.000e+00
   6.136e-01  -9.803e-01   0.000e+00
   5.762e-01   9.152e-02   0.000e+00
   6.136e-01  -9.803e-01   0.000e+00
   5.762e-01   9.152e-02   0.000e+00
   6.136e-01  -9.803e-01   0.000e+00
   1.193e+00  -8.195e-01   0.000e+00
   2.067e+00  -9.244e-01   0.000e+00
   3.265e+00  -1.164e+00   0.000e+00
   4.859e+00  -1.483e+00   0.000e+00
  -4.071e+00  -7.211e-01   0.000e+00
  -2.666e+00  -5.391e-01   0.000e+00
  -1.674e+00  -4.063e-01   0.000e+00
  -1.053e+00  -3.633e-01   0.000e+00
  -7.622e-01  -4.537e-01   0.000e+00
  -5.994e-01   2.803e-01   0.000e+00
  -7.495e-01  -6.367e-01   0.000e+00
  -5.994e-01   2.803e-01   0.000e+00
  -7.495e-01  -6.367e-01   0.000e+00
  -5.994e-01   2.803e-01   0.000e+00
  -7.495e-01  -6.367e-01   0.000e+00
  -7.495e-01  -6.367e-01   0.000e+00
  -3.673e-01  -7.188e-02   0.000e+00
  -7.112e-03  -4.551e-01   0.000e+00
  -2.769e-02  -5.055e-01   0.000e+00
   2.536e-01  -1.936e-01   0.000e+00
   5.868e-01   1.884e-01   0.000e+00
   5.868e-01   1.884e-01   0.000e+00
   7.588e-01  -7.639e-01   0.000e+00
   5.868e-01   1.884e-01   0.000e+00
   5.868e-01   1.884e-01   0.000e+00
   8.563e-01  -5.670e-01   0.000e+00
   1.223e+00  -4.349e-01   0.000e+00
   1.934e+00  -4.599e-01   0.000e+00
   3.039e+00  -5.977e-01   0.000e+00
   4.579e+00  -7.942e-01   0.000e+00
  -3.934e+00  -1.560e-01   0.000e+00
  -2.547e+00  -7.806e-02   0.000e+00
  -1.594e+00   1.661e-03   0.000e+00
  -1.078e+00   3.973e-02   0.000e+00
  -9.187e-01  -6.281e-02   0.000e+00
  -3.737e-01  -3.417e-01   0.000e+00
  -9.951e-01  -2.198e-01   0.000e+00
  -3.737e-01  -3.417e-01   0.000e+00
  -9.951e-01  -2.198e-01   0.000e+00
  -3.737e-01  -3.417e-01   0.000e+00
  -9.951e-01  -2.198e-01   0.000e+00
  -3.737e-01  -3.417e-01   0.000e+00
  -9.951e-01  -2.198e-01   0.000e+00
  -5.999e-01  -2.352e-01   0.000e+00
  -1.729e-01  -1.639e-01   0.000e+00
   9.764e-02  -1.708e-01   0.000e+00
   4.734e-01  -1.461e-01   0.000e+00
   1.158e+00  -2.798e-01   0.000e+00
   6.501e-01  -3.774e-01   0.000e+00
   1.158e+00  -2.798e-01   0.000e+00
   6.501e-01  -3.774e-01   0.000e+00
   1.158e+00  -2.798e-01   0.000e+00
   6.501e-01  -3.774e-01   0.000e+00
   1.158e+00  -2.798e-01   0.000e+00
   1.066e+00  -1.343e-01   0.000e+00
   1.066e+00  -1.343e-01   0.000e+00
   1.066e+00  -1.343e-01   0.000e+00
  -1.457e-01   1.146e+00   0.000e+00
   1.066e+00  -1.343e-01   0.000e+00
   1.287e+00   1.881e-02   0.000e+00
   1.859e+00   9.810e-03   0.000e+00
   2.904e+00  -8.549e-02   0.000e+00
   4.425e+00  -1.826e-01   0.000e+00
  -3.923e+00   3.823e-01   0.000e+00
  -2.507e+00   3.475e-01   0.000e+00
  -1.495e+00   4.045e-01   0.000e+00
  -1.029e+00   5.928e-01   0.000e+00
  -4.301e-01  -3.265e-01   0.000e+00
  -1.029e+00   5.928e-01   0.000e+00
  -1.029e+00   5.928e-01   0.000e+00
  -1.029e+00   5.928e-01   0.000e+00
  -3.300e-01  -2.844e-01   0.000e+00
  -1.290e+00   2.433e-01   0.000e+00
  -3.300e-01  -2.844e-01   0.000e+00
  -3.300e-01  -2.844e-01   0.000e+00
  -3.300e-01  -2.844e-01   0.000e+00
  -3.280e-01  -2.066e-01   0.000e+00
  -3.364e-01   2.538e-02   0.000e+00
  -1.614e-01   1.035e-01   0.000e+00
   9.801e-02   9.537e-02   0.000e+00
   3.279e-01   5.493e-02   0.000e+00
   3.598e-01  -1.509e-01   0.000e+00
   3.281e-01  -2.564e-01   0.000e+00
   1.330e+00   4.184e-01   0.000e+00
   3.281e-01  -2.564e-01   0.000e+00
   3.281e-01  -2.564e-01   0.000e+00
   3.281e-01  -2.564e-01   0.000e+00
   1.374e+00   6.776e-01   0.000e+00
   4.245e-01  -3.024e-01   0.000e+00
   1.374e+00   6.776e-01   0.000e+00
   4.245e-01  -3.024e-01   0.000e+00
   1.374e+00   6.776e-01   0.000e+00
   4.245e-01  -3.024e-01   0.000e+00
   1.374e+00   6.776e-01   0.000e+00
   1.720e+00   5.167e-01   0.000e+00
   2.836e+00   3.891e-01   0.000e+00
   4.396e+00   4.020e-01   0.000e+00
  -4.059e+00   9.450e-01   0.000e+00
  -2.584e+00   7.488e-01   0.000e+00
  -1.387e+00   6.390e-01   0.000e+00
  -3.675e-01   7.336e-02   0.000e+00
  -3.675e-01   7.336e-02   0.000e+00
  -3.675e-01   7.336e-02   0.000e+00
  -3.675e-01   7.336e-02   0.000e+00
  -2.783e-01   8.817e-01   0.000e+00
  -2.414e-01   1.677e-01   0.000e+00
  -1.428e-01   3.377e-01   0.000e+00
  -1.700e-01   6.014e-01   0.000e+00
  -2.872e-01   4.045e-01   0.000e+00
   1.331e-01   3.348e-01   0.000e+00
   3.723e-01   5.373e-01   0.000e+00
   1.336e-01   4.269e-01   0.000e+00
   2.211e-01   2.127e-01   0.000e+00
   3.615e-01   1.065e-01   0.000e+00
   1.500e+00   8.423e-01   0.000e+00
   3.615e-01   1.065e-01   0.000e+00
   3.615e-01   1.065e-01   0.000e+00
   3.615e-01   1.065e-01   0.000e+00
   1.444e+00   6.843e-01   0.000e+00
   1.444e+00   6.843e-01   0.000e+00
   1.444e+00   6.843e-01   0.000e+00
   5.763e-01   3.587e-02   0.000e+00
   1.444e+00   6.843e-01   0.000e+00
   2.896e+00   7.995e-01   0.000e+00
   4.529e+00   1.010e+00   0.000e+00
  -4.367e+00   1.601e+00   0.000e+00
  -2.856e+00   1.222e+00   0.000e+00
  -1.680e+00   8.190e-01   0.000e+00
  -2.900e-01   4.395e-01   0.000e+00
  -1.045e+00   1.694e-01   0.000e+00
  -1.045e+00   1.694e-01   0.000e+00
  -1.045e+00   1.694e-01   0.000e+00
  -1.045e+00   1.694e-01   0.000e+00
  -1.079e-01   5.634e-01   0.000e+00
  -1.079e-01   5.634e-01   0.000e+00
  -1.082e+00   2.003e-01   0.000e+00
  -1.079e-01   5.634e-01   0.000e+00
  -1.082e+00   2.003e-01   0.000e+00
  -1.079e-01   5.634e-01   0.000e+00
  -1.082e+00   2.003e-01   0.000e+00
   1.077e-01   8.579e-01   0.000e+00
  -8.616e-01   5.076e-01   0.000e+00
  -8.616e-01   5.076e-01   0.000e+00
  -8.616e-01   5.076e-01   0.000e+00
  -8.616e-01   5.076e-01   0.000e+00
  -5.162e-01   1.794e+00   0.000e+00
  -6.523e-01   8.198e-01   0.000e+00
  -6.523e-01   8.198e-01   0.000e+00
  -6.523e-01   8.198e-01   0.000e+00
  -6.523e-01   8.198e-01   0.000e+00
  -4.220e-01   2.709e-01   0.000e+00
  -4.220e-01   2.709e-01   0.000e+00
  -4.220e-01   2.709e-01   0.000e+00
  -4.220e-01   2.709e-01   0.000e+00
  -4.601e-01   1.108e+00   0.000e+00
   2.258e-01   3.041e-01   0.000e+00
   6.606e-01   3.019e-01   0.000e+00
   5.163e-01   1.014e+00   0.000e+00
   6.606e-01   3.019e-01   0.000e+00
   5.163e-01   1.014e+00   0.000e+00
   6.606e-01   3.019e-01   0.000e+00
   5.163e-01   1.014e+00   0.000e+00
   6.606e-01   3.019e-01   0.000e+00
   4.188e-02   7.026e-01   0.000e+00
   8.251e-01   6.927e-01   0.000e+00
   8.251e-01   6.927e-01   0.000e+00
   8.251e-01   6.927e-01   0.000e+00
   8.251e-01   6.927e-01   0.000e+00
   7.193e-02   5.933e-01   0.000e+00
   7.193e-02   5.933e-01   0.000e+00
   1.257e+00   4.189e-01   0.000e+00
   7.193e-02   5.933e-01   0.000e+00
   1.257e+00   4.189e-01   0.000e+00
   7.193e-02   5.933e-01   0.000e+00
   1.257e+00   4.189e-01   0.000e+00
   3.006e-01   5.886e-01   0.000e+00
   1.432e+00   2.253e-01   0.000e+00
   1.432e+00   2.253e-01   0.000e+00
   1.432e+00   2.253e-01   0.000e+00
   1.432e+00   2.253e-01   0.000e+00
   1.945e+00   7.982e-01   0.000e+00
   3.214e+00   1.292e+00   0.000e+00
   4.863e+00   1.717e+00   0.000e+00
  -4.846e+00   2.426e+00   0.000e+00
  -3.300e+00   1.897e+00   0.000e+00
  -2.156e+00   1.409e+00   0.000e+00
  -1.428e+00   1.001e+00   0.000e+00
  -1.007e+00   8.236e-01   0.000e+00
  -6.721e-01   8.571e-01   0.000e+00
  -3.543e-01   1.038e+00   0.000e+00
  -3.136e-01   2.405e-01   0.000e+00
  -3.136e-01   2.405e-01   0.000e+00
  -3.136e-01   2.405e-01   0.000e+00
  -3.136e-01   2.405e-01   0.000e+00
   9.038e-02   1.426e+00   0.000e+00
   1.965e-01   2.699e-01   0.000e+00
   6.619e-01   1.634e-01   0.000e+00
   2.224e-01   1.096e+00   0.000e+00
   2.224e-01   1.096e+00   0.000e+00
   6.619e-01   1.634e-01   0.000e+00
   2.224e-01   1.096e+00   0.000e+00
   6.619e-01   1.634e-01   0.000e+00
   2.224e-01   1.096e+00   0.000e+00
   6.640e-01   9.595e-01   0.000e+00
   1.138e+00   9.377e-01   0.000e+00
   1.666e+00   1.091e+00   0.000e+00
   2.473e+00   1.495e+00   0.000e+00
   3.711e+00   2.021e+00   0.000e+00
   5.386e+00   2.597e+00   0.000e+00
  -5.475e+00   3.482e+00   0.000e+00
  -3.859e+00   2.826e+00   0.000e+00
  -2.640e+00   2.261e+00   0.000e+00
  -1.766e+00   1.814e+00   0.000e+00
  -1.145e+00   1.519e+00   0.000e+00
  -6.536e-01   1.379e+00   0.000e+00
  -1.633e-01   1.381e+00   0.000e+00
  -2.537e-01   3.347e-01   0.000e+00
  -2.537e-01   3.347e-01   0.000e+00
   6.591e-01   1.635e+00   0.000e+00
  -2.537e-01   3.347e-01   0.000e+00
   6.591e-01   1.635e+00   0.000e+00
  -2.537e-01   3.347e-01   0.000e+00
   6.591e-01   1.635e+00   0.000e+00
   1.699e-01   3.455e-01   0.000e+00
   5.205e-02   1.343e+00   0.000e+00
   5.205e-02   1.343e+00   0.000e+00
   5.205e-02   1.343e+00   0.000e+00
   3.621e-01   1.283e-01   0.000e+00
   5.205e-02   1.343e+00   0.000e+00
   6.906e-01   1.421e+00   0.000e+00
   1.288e+00   1.609e+00   0.000e+00
   2.009e+00   1.928e+00   0.000e+00
   2.982e+00   2.402e+00   0.000e+00
   4.314e+00   3.004e+00   0.000e+00
   6.063e+00   3.706e+00   0.000e+00
  -6.245e+00   4.823e+00   0.000e+00
  -4.528e+00   4.040e+00   0.000e+00
  -3.197e+00   3.374e+00   0.000e+00
  -2.188e+00   2.835e+00   0.000e+00
  -1.424e+00   2.430e+00   0.000e+00
  -8.097e-01   2.146e+00   0.000e+00
  -2.416e-01   1.930e+00   0.000e+00
  -2.113e-01   4.235e-01   0.000e+00
   3.376e-01   1.522e+00   0.000e+00
   3.376e-01   1.522e+00   0.000e+00
   3.376e-01   1.522e+00   0.000e+00
   3.376e-01   1.522e+00   0.000e+00
   5.314e-01   1.144e+00   0.000e+00
  -2.884e-02   1.342e+00   0.000e+00
  -2.884e-02   1.342e+00   0.000e+00
  -2.884e-02   1.342e+00   0.000e+00
  -2.884e-02   1.342e+00   0.000e+00
   3.281e-01   1.841e+00   0.000e+00
   9.239e-01   2.170e+00   0.000e+00
   1.611e+00   2.519e+00   0.000e+00
   2.466e+00   2.972e+00   0.000e+00
   3.577e+00   3.554e+00   0.000e+00
   5.026e+00   4.265e+00   0.000e+00
   6.881e+00   5.096e+00   0.000e+00
  -7.156e+00   6.504e+00   0.000e+00
  -5.314e+00   5.590e+00   0.000e+00
  -3.853e+00   4.811e+00   0.000e+00
  -2.711e+00   4.171e+00   0.000e+00
  -1.817e+00   3.666e+00   0.000e+00
  -1.102e+00   3.279e+00   0.000e+00
  -5.091e-01   2.977e+00   0.000e+00
  -4.938e-02   2.738e+00   0.000e+00
   2.590e-01   2.711e+00   0.000e+00
   6.819e-01   2.963e+00   0.000e+00
   1.289e+00   3.324e+00   0.000e+00
   2.061e+00   3.772e+00   0.000e+00
   3.037e+00   4.334e+00   0.000e+00
   4.281e+00   5.027e+00   0.000e+00
   5.863e+00   5.859e+00   0.000e+00
   7.843e+00   6.826e+00   0.000e+00
  -8.211e+00   8.577e+00   0.000e+00
  -6.223e+00   7.531e+00   0.000e+00
  -4.616e+00   6.638e+00   0.000e+00
  -3.329e+00   5.899e+00   0.000e+00
  -2.300e+00   5.308e+00   0.000e+00
  -1.468e+00   4.853e+00   0.000e+00
  -7.775e-01   4.523e+00   0.000e+00
  -1.812e-01   4.331e+00   0.000e+00
   3.783e-01   4.331e+00   0.000e+00
   9.879e-01   4.543e+00   0.000e+00
   1.714e+00   4.922e+00   0.000e+00
   2.604e+00   5.438e+00   0.000e+00
   3.713e+00   6.091e+00   0.000e+00
   5.100e+00   6.891e+00   0.000e+00
   6.827e+00   7.845e+00   0.000e+00
   8.951e+00   8.951e+00   0.000e+00

POINT_DATA 2928
VECTORS displacement float
   5.430e-01   0.000e+00   0.000e+00
   4.214e-01   0.000e+00   0.000e+00
   4.214e-01   0.000e+00   0.000e+00
   4.214e-01   0.000e+00   0.000e+00
   3.283e-01   0.000e+00   0.000e+00
   3.150e-01   0.000e+00   0.000e+00
   3.283e-01   0.000e+00   0.000e+00
   2.586e-01   0.000e+00   0.000e+00
   2.352e-01   0.000e+00   0.000e+00
   2.586e-01   0.000e+00   0.000e+00
   2.076e-01   0.000e+00   0.000e+00
   1.767e-01   0.000e+00   0.000e+00
   2.076e-01   0.000e+00   0.000e+00
   1.719e-01   0.000e+00   0.000e+00
   1.350e-01   0.000e+00   0.000e+00
   1.719e-01   0.000e+00   0.000e+00
   1.484e-01   0.000e+00   0.000e+00
   1.063e-01   0.000e+00   0.000e+00
   1.484e-01   0.000e+00   0.000e+00
   1.351e-01   0.000e+00   0.000e+00
   8.769e-02   0.000e+00   0.000e+00
   1.351e-01   0.000e+00   0.000e+00
   1.308e-01   0.000e+00   0.000e+00
   7.717e-02   0.000e+00   0.000e+00
   1.308e-01   0.000e+00   0.000e+00
   1.351e-01   0.000e+00   0.000e+00
   7.371e-02   0.000e+00   0.000e+00
   1.351e-01   0.000e+00   0.000e+00
   1.483e-01   0.000e+00   0.000e+00
   7.705e-02   0.000e+00   0.000e+00
   1.483e-01   0.000e+00   0.000e+00
   1.718e-01   0.000e+00   0.000e+00
   8.760e-02   0.000e+00   0.000e+00
   1.718e-01   0.000e+00   0.000e+00
   2.076e-01   0.000e+00   0.000e+00
   1.064e-01   0.000e+00   0.000e+00
   2.076e-01   0.000e+00   0.000e+00
   2.585e-01   0.000e+00   0.000e+00
   1.352e-01   0.000e+00   0.000e+00
   2.585e-01   0.000e+00   0.000e+00
   3.283e-01   0.000e+00   0.000e+00
   1.770e-01   0.000e+00   0.000e+00
   3.283e-01   0.000e+00   0.000e+00
   4.214e-01   0.000e+00   0.000e+00
   2.354e-01   0.000e+00   0.000e+00
   4.214e-01   0.000e+00   0.000e+00
   5.430e-01   0.000e+00   0.000e+00
   3.151e-01   0.000e+00   0.000e+00
   4.214e-01   0.000e+00   0.000e+00
   3.150e-01   0.000e+00   0.000e+00
   3.283e-01   0.000e+00   0.000e+00
   3.150e-01   0.000e+00   0.000e+00
   2.352e-01   0.000e+00   0.000e+00
   2.351e-01   0.000e+00   0.000e+00
   2.352e-01   0.000e+00   0.000e+00
   1.767e-01   0.000e+00   0.000e+00
   1.668e-01   0.000e+00   0.000e+00
   1.767e-01   0.000e+00   0.000e+00
   1.350e-01   0.000e+00   0.000e+00
   1.181e-01   0.000e+00   0.000e+00
   1.350e-01   0.000e+00   0.000e+00
   1.063e-01   0.000e+00   0.000e+00
   8.452e-02   0.000e+00   0.000e+00
   1.063e-01   0.000e+00   0.000e+00
   8.769e-02   0.000e+00   0.000e+00
   6.217e-02   0.000e+00   0.000e+00
   8.769e-02   0.000e+00   0.000e+00
   7.717e-02   0.000e+00   0.000e+00
   4.777e-02   0.000e+00   0.000e+00
   7.717e-02   0.000e+00   0.000e+00
   7.371e-02   0.000e+00   0.000e+00
   3.936e-02   0.000e+00   0.000e+00
   7.371e-02   0.000e+00   0.000e+00
   7.705e-02   0.000e+00   0.000e+00
   3.638e-02   0.000e+00   0.000e+00
   7.705e-02   0.000e+00   0.000e+00
   8.760e-02   0.000e+00   0.000e+00
   3.894e-02   0.000e+00   0.000e+00
   8.760e-02   0.000e+00   0.000e+00
   1.064e-01   0.000e+00   0.000e+00
   4.740e-02   0.000e+00   0.000e+00
   1.064e-01   0.000e+00   0.000e+00
   1.352e-01   0.000e+00   0.000e+00
   6.236e-02   0.000e+00   0.000e+00
   1.352e-01   0.000e+00   0.000e+00
   1.770e-01   0.000e+00   0.000e+00
   8.523e-02   0.000e+00   0.000e+00
   1.770e-01   0.000e+00   0.000e+00
   2.354e-01   0.000e+00   0.000e+00
   1.189e-01   0.000e+00   0.000e+00
   2.354e-01   0.000e+00   0.000e+00
   3.151e-01   0.000e+00   0.000e+00
   1.674e-01   0.000e+00   0.000e+00
   3.151e-01   0.000e+00   0.000e+00
   4.214e-01   0.000e+00   0.000e+00
   2.354e-01   0.000e+00   0.000e+00
   3.283e-01   0.000e+00   0.000e+00
   2.351e-01   0.000e+00   0.000e+00
   2.586e-01   0.000e+00   0.000e+00
   2.351e-01   0.000e+00   0.000e+00
   1.668e-01   0.000e+00   0.000e+00
   1.765e-01   0.000e+00   0.000e+00
   1.668e-01   0.000e+00   0.000e+00
   1.181e-01   0.000e+00   0.000e+00
   1.178e-01   0.000e+00   0.000e+00
   1.181e-01   0.000e+00   0.000e+00
   8.452e-02   0.000e+00   0.000e+00
   7.751e-02   0.000e+00   0.000e+00
   8.452e-02   0.000e+00   0.000e+00
   6.217e-02   0.000e+00   0.000e+00
   5.112e-02   0.000e+00   0.000e+00
   6.217e-02   0.000e+00   0.000e+00
   4.777e-02   0.000e+00   0.000e+00
   3.468e-02   0.000e+00   0.000e+00
   4.777e-02   0.000e+00   0.000e+00
   3.936e-02   0.000e+00   0.000e+00
   2.377e-02   0.000e+00   0.000e+00
   3.936e-02   0.000e+00   0.000e+00
   3.638e-02   0.000e+00   0.000e+00
   1.625e-02   0.000e+00   0.000e+00
   3.638e-02   0.000e+00   0.000e+00
   3.894e-02   0.000e+00   0.000e+00
   1.304e-02   0.000e+00   0.000e+00
   3.894e-02   0.000e+00   0.000e+00
   4.740e-02   0.000e+00   0.000e+00
   1.499e-02   0.000e+00   0.000e+00
   4.740e-02   0.000e+00   0.000e+00
   6.236e-02   0.000e+00   0.000e+00
   2.246e-02   0.000e+00   0.000e+00
   6.236e-02   0.000e+00   0.000e+00
   8.523e-02   0.000e+00   0.000e+00
   3.507e-02   0.000e+00   0.000e+00
   8.523e-02   0.000e+00   0.000e+00
   1.189e-01   0.000e+00   0.000e+00
   5.279e-02   0.000e+00   0.000e+00
   1.189e-01   0.000e+00   0.000e+00
   1.674e-01   0.000e+00   0.000e+00
   7.902e-02   0.000e+00   0.000e+00
   1.674e-01   0.000e+00   0.000e+00
   2.354e-01   0.000e+00   0.000e+00
   1.189e-01   0.000e+00   0.000e+00
   2.354e-01   0.000e+00   0.000e+00
   3.283e-01   0.000e+00   0.000e+00
   1.770e-01   0.000e+00   0.000e+00
   2.586e-01   0.000e+00   0.000e+00
   1.765e-01   0.000e+00   0.000e+00
   2.076e-01   0.000e+00   0.000e+00
   1.765e-01   0.000e+00   0.000e+00
   1.178e-01   0.000e+00   0.000e+00
   1.346e-01   0.000e+00   0.000e+00
   1.178e-01   0.000e+00   0.000e+00
   7.751e-02   0.000e+00   0.000e+00
   8.376e-02   0.000e+00   0.000e+00
   7.751e-02   0.000e+00   0.000e+00
   5.112e-02   0.000e+00   0.000e+00
   5.015e-02   0.000e+00   0.000e+00
   5.112e-02   0.000e+00   0.000e+00
   3.468e-02   0.000e+00   0.000e+00
   2.978e-02   0.000e+00   0.000e+00
   3.468e-02   0.000e+00   0.000e+00
   2.377e-02   0.000e+00   0.000e+00
   2.023e-02   0.000e+00   0.000e+00
   2.377e-02   0.000e+00   0.000e+00
   1.625e-02   0.000e+00   0.000e+00
   1.318e-02   0.000e+00   0.000e+00
   1.625e-02   0.000e+00   0.000e+00
   1.304e-02   0.000e+00   0.000e+00
   2.556e-03   0.000e+00   0.000e+00
   1.304e-02   0.000e+00   0.000e+00
   1.499e-02   0.000e+00   0.000e+00
  -1.914e-03   0.000e+00   0.000e+00
   1.499e-02   0.000e+00   0.000e+00
   2.246e-02   0.000e+00   0.000e+00
  -5.078e-04   0.000e+00   0.000e+00
   2.246e-02   0.000e+00   0.000e+00
   3.507e-02   0.000e+00   0.000e+00
   7.629e-03   0.000e+00   0.000e+00
   3.507e-02   0.000e+00   0.000e+00
   5.279e-02   0.000e+00   0.000e+00
   2.301e-02   0.000e+00   0.000e+00
   5.279e-02   0.000e+00   0.000e+00
   7.902e-02   0.000e+00   0.000e+00
   3.373e-02   0.000e+00   0.000e+00
   7.902e-02   0.000e+00   0.000e+00
   1.189e-01   0.000e+00   0.000e+00
   5.255e-02   0.000e+00   0.000e+00
   1.189e-01   0.000e+00   0.000e+00
   1.770e-01   0.000e+00   0.000e+00
   8.517e-02   0.000e+00   0.000e+00
   1.770e-01   0.000e+00   0.000e+00
   2.585e-01   0.000e+00   0.000e+00
   1.352e-01   0.000e+00   0.000e+00
   2.076e-01   0.000e+00   0.000e+00
   1.346e-01   0.000e+00   0.000e+00
   1.719e-01   0.000e+00   0.000e+00
   1.346e-01   0.000e+00   0.000e+00
   8.376e-02   0.000e+00   0.000e+00
   1.057e-01   0.000e+00   0.000e+00
   8.376e-02   0.000e+00   0.000e+00
   5.015e-02   0.000e+00   0.000e+00
   6.080e-02   0.000e+00   0.000e+00
   5.015e-02   0.000e+00   0.000e+00
   2.978e-02   0.000e+00   0.000e+00
   3.199e-02   0.000e+00   0.000e+00
   2.978e-02   0.000e+00   0.000e+00
   2.023e-02   0.000e+00   0.000e+00
   1.527e-02   0.000e+00   0.000e+00
   2.023e-02   0.000e+00   0.000e+00
   1.769e-02   0.000e+00   0.000e+00
   1.545e-02   0.000e+00   0.000e+00
   1.371e-02   0.000e+00   0.000e+00
   1.964e-02   0.000e+00   0.000e+00
   2.756e-04   0.000e+00   0.000e+00
   1.318e-02   0.000e+00   0.000e+00
   1.398e-02   0.000e+00   0.000e+00
   1.753e-02   0.000e+00   0.000e+00
   1.769e-02   0.000e+00   0.000e+00
   2.756e-04   0.000e+00   0.000e+00
   1.964e-02   0.000e+00   0.000e+00
   1.741e-02   0.000e+00   0.000e+00
   1.753e-02   0.000e+00   0.000e+00
   1.555e-02   0.000e+00   0.000e+00
   1.545e-02   0.000e+00   0.000e+00
   1.769e-02   0.000e+00   0.000e+00
   8.580e-03   0.000e+00   0.000e+00
   1.741e-02   0.000e+00   0.000e+00
   1.052e-02   0.000e+00   0.000e+00
   2.756e-04   0.000e+00   0.000e+00
   1.555e-02   0.000e+00   0.000e+00
   1.059e-02   0.000e+00   0.000e+00
   1.545e-02   0.000e+00   0.000e+00
   1.360e-02   0.000e+00   0.000e+00
   8.072e-03   0.000e+00   0.000e+00
  -1.029e-02   0.000e+00   0.000e+00
   1.318e-02   0.000e+00   0.000e+00
   7.170e-03   0.000e+00   0.000e+00
   1.289e-02   0.000e+00   0.000e+00
   7.874e-03   0.000e+00   0.000e+00
   2.484e-03   0.000e+00   0.000e+00
   4.903e-03   0.000e+00   0.000e+00
  -8.865e-03   0.000e+00   0.000e+00
   2.556e-03   0.000e+00   0.000e+00
   2.309e-03   0.000e+00   0.000e+00
   4.845e-03   0.000e+00   0.000e+00
   7.170e-03   0.000e+00   0.000e+00
  -8.865e-03   0.000e+00   0.000e+00
  -1.029e-02   0.000e+00   0.000e+00
   8.072e-03   0.000e+00   0.000e+00
   4.903e-03   0.000e+00   0.000e+00
   7.874e-03   0.000e+00   0.000e+00
   4.845e-03   0.000e+00   0.000e+00
   7.170e-03   0.000e+00   0.000e+00
  -3.093e-02   0.000e+00   0.000e+00
  -1.029e-02   0.000e+00   0.000e+00
  -8.865e-03   0.000e+00   0.000e+00
   2.556e-03   0.000e+00   0.000e+00
  -4.276e-04   0.000e+00   0.000e+00
  -2.809e-03   0.000e+00   0.000e+00
  -1.914e-03   0.000e+00   0.000e+00
  -6.191e-03   0.000e+00   0.000e+00
  -4.276e-04   0.000e+00   0.000e+00
  -6.191e-03   0.000e+00   0.000e+00
  -2.809e-03   0.000e+00   0.000e+00
  -4.276e-04   0.000e+00   0.000e+00
  -2.583e-02   0.000e+00   0.000e+00
  -4.352e-03   0.000e+00   0.000e+00
  -7.653e-03   0.000e+00   0.000e+00
  -4.361e-03   0.000e+00   0.000e+00
  -7.689e-03   0.000e+00   0.000e+00
  -2.809e-03   0.000e+00   0.000e+00
  -6.191e-03   0.000e+00   0.000e+00
  -1.914e-03   0.000e+00   0.000e+00
  -5.078e-04   0.000e+00   0.000e+00
  -1.382e-02   0.000e+00   0.000e+00
  -5.078e-04   0.000e+00   0.000e+00
   7.629e-03   0.000e+00   0.000e+00
  -1.327e-02   0.000e+00   0.000e+00
   3.524e-03   0.000e+00   0.000e+00
   7.794e-03   0.000e+00   0.000e+00
  -4.062e-03   0.000e+00   0.000e+00
   7.629e-03   0.000e+00   0.000e+00
   1.464e-02   0.000e+00   0.000e+00
   3.082e-03   0.000e+00   0.000e+00
   8.461e-03   0.000e+00   0.000e+00
   2.259e-02   0.000e+00   0.000e+00
   1.463e-02   0.000e+00   0.000e+00
  -7.104e-03   0.000e+00   0.000e+00
   2.301e-02   0.000e+00   0.000e+00
   2.220e-02   0.000e+00   0.000e+00
   1.368e-02   0.000e+00   0.000e+00
   1.464e-02   0.000e+00   0.000e+00
  -7.104e-03   0.000e+00   0.000e+00
  -4.062e-03   0.000e+00   0.000e+00
   7.794e-03   0.000e+00   0.000e+00
   1.463e-02   0.000e+00   0.000e+00
   8.461e-03   0.000e+00   0.000e+00
   1.368e-02   0.000e+00   0.000e+00
   1.464e-02   0.000e+00   0.000e+00
  -3.106e-02   0.000e+00   0.000e+00
  -4.062e-03   0.000e+00   0.000e+00
  -7.104e-03   0.000e+00   0.000e+00
   2.358e-02   0.000e+00   0.000e+00
   2.724e-02   0.000e+00   0.000e+00
   1.111e-03   0.000e+00   0.000e+00
   2.301e-02   0.000e+00   0.000e+00
   2.844e-02   0.000e+00   0.000e+00
   2.311e-02   0.000e+00   0.000e+00
   2.636e-02   0.000e+00   0.000e+00
   2.630e-02   0.000e+00   0.000e+00
   2.597e-02   0.000e+00   0.000e+00
   2.011e-02   0.000e+00   0.000e+00
   3.373e-02   0.000e+00   0.000e+00
   2.596e-02   0.000e+00   0.000e+00
   2.640e-02   0.000e+00   0.000e+00
   2.844e-02   0.000e+00   0.000e+00
   2.011e-02   0.000e+00   0.000e+00
   1.111e-03   0.000e+00   0.000e+00
   2.724e-02   0.000e+00   0.000e+00
   2.597e-02   0.000e+00   0.000e+00
   2.636e-02   0.000e+00   0.000e+00
   2.640e-02   0.000e+00   0.000e+00
   2.844e-02   0.000e+00   0.000e+00
  -1.567e-02   0.000e+00   0.000e+00
   1.111e-03   0.000e+00   0.000e+00
   2.011e-02   0.000e+00   0.000e+00
   3.373e-02   0.000e+00   0.000e+00
   5.255e-02   0.000e+00   0.000e+00
   2.040e-02   0.000e+00   0.000e+00
   5.255e-02   0.000e+00   0.000e+00
   8.517e-02   0.000e+00   0.000e+00
   3.474e-02   0.000e+00   0.000e+00
   8.517e-02   0.000e+00   0.000e+00
   1.352e-01   0.000e+00   0.000e+00
   6.239e-02   0.000e+00   0.000e+00
   1.352e-01   0.000e+00   0.000e+00
   2.076e-01   0.000e+00   0.000e+00
   1.065e-01   0.000e+00   0.000e+00
   1.719e-01   0.000e+00   0.000e+00
   1.057e-01   0.000e+00   0.000e+00
   1.484e-01   0.000e+00   0.000e+00
   1.057e-01   0.000e+00   0.000e+00
   6.080e-02   0.000e+00   0.000e+00
   8.713e-02   0.000e+00   0.000e+00
   6.080e-02   0.000e+00   0.000e+00
   3.199e-02   0.000e+00   0.000e+00
   4.630e-02   0.000e+00   0.000e+00
   3.199e-02   0.000e+00   0.000e+00
   1.527e-02   0.000e+00   0.000e+00
   2.043e-02   0.000e+00   0.000e+00
   1.527e-02   0.000e+00   0.000e+00
   1.082e-02   0.000e+00   0.000e+00
   9.541e-03   0.000e+00   0.000e+00
   8.580e-03   0.000e+00   0.000e+00
   9.051e-03   0.000e+00   0.000e+00
   9.483e-03   0.000e+00   0.000e+00
   8.750e-03   0.000e+00   0.000e+00
   8.918e-03   0.000e+00   0.000e+00
   4.733e-03   0.000e+00   0.000e+00
   1.082e-02   0.000e+00   0.000e+00
   4.733e-03   0.000e+00   0.000e+00
   9.541e-03   0.000e+00   0.000e+00
   1.082e-02   0.000e+00   0.000e+00
   4.849e-03   0.000e+00   0.000e+00
   9.541e-03   0.000e+00   0.000e+00
   4.733e-03   0.000e+00   0.000e+00
   8.580e-03   0.000e+00   0.000e+00
  -1.606e-02   0.000e+00   0.000e+00
   7.709e-03   0.000e+00   0.000e+00
   2.246e-03   0.000e+00   0.000e+00
   7.648e-03   0.000e+00   0.000e+00
   2.001e-03   0.000e+00   0.000e+00
   1.461e-03   0.000e+00   0.000e+00
  -3.093e-02   0.000e+00   0.000e+00
  -2.380e-02   0.000e+00   0.000e+00
  -1.606e-02   0.000e+00   0.000e+00
  -2.380e-02   0.000e+00   0.000e+00
   2.246e-03   0.000e+00   0.000e+00
   1.448e-03   0.000e+00   0.000e+00
  -1.606e-02   0.000e+00   0.000e+00
   2.001e-03   0.000e+00   0.000e+00
   1.038e-03   0.000e+00   0.000e+00
   1.461e-03   0.000e+00   0.000e+00
   1.448e-03   0.000e+00   0.000e+00
  -3.831e-03   0.000e+00   0.000e+00
  -2.380e-02   0.000e+00   0.000e+00
  -4.669e-03   0.000e+00   0.000e+00
   1.461e-03   0.000e+00   0.000e+00
   1.038e-03   0.000e+00   0.000e+00
  -3.899e-03   0.000e+00   0.000e+00
  -3.093e-02   0.000e+00   0.000e+00
  -2.583e-02   0.000e+00   0.000e+00
  -5.058e-02   0.000e+00   0.000e+00
  -2.583e-02   0.000e+00   0.000e+00
  -1.067e-02   0.000e+00   0.000e+00
  -1.184e-02   0.000e+00   0.000e+00
  -5.261e-02   0.000e+00   0.000e+00
  -1.091e-02   0.000e+00   0.000e+00
  -1.229e-02   0.000e+00   0.000e+00
  -1.182e-02   0.000e+00   0.000e+00
  -1.681e-02   0.000e+00   0.000e+00
  -1.373e-02   0.000e+00   0.000e+00
  -3.544e-02   0.000e+00   0.000e+00
  -1.382e-02   0.000e+00   0.000e+00
  -1.680e-02   0.000e+00   0.000e+00
  -1.389e-02   0.000e+00   0.000e+00
  -1.182e-02   0.000e+00   0.000e+00
  -3.544e-02   0.000e+00   0.000e+00
  -5.261e-02   0.000e+00   0.000e+00
  -1.184e-02   0.000e+00   0.000e+00
  -1.373e-02   0.000e+00   0.000e+00
  -1.229e-02   0.000e+00   0.000e+00
  -1.389e-02   0.000e+00   0.000e+00
  -1.182e-02   0.000e+00   0.000e+00
  -7.565e-02   0.000e+00   0.000e+00
  -5.261e-02   0.000e+00   0.000e+00
  -3.544e-02   0.000e+00   0.000e+00
  -1.382e-02   0.000e+00   0.000e+00
  -1.429e-02   0.000e+00   0.000e+00
  -1.993e-02   0.000e+00   0.000e+00
  -1.327e-02   0.000e+00   0.000e+00
  -2.063e-02   0.000e+00   0.000e+00
  -1.429e-02   0.000e+00   0.000e+00
  -2.063e-02   0.000e+00   0.000e+00
  -1.993e-02   0.000e+00   0.000e+00
  -1.429e-02   0.000e+00   0.000e+00
  -4.145e-02   0.000e+00   0.000e+00
  -2.599e-02   0.000e+00   0.000e+00
  -2.621e-02   0.000e+00   0.000e+00
  -2.430e-02   0.000e+00   0.000e+00
  -2.536e-02   0.000e+00   0.000e+00
  -1.993e-02   0.000e+00   0.000e+00
  -2.063e-02   0.000e+00   0.000e+00
  -1.140e-02   0.000e+00   0.000e+00
  -1.968e-02   0.000e+00   0.000e+00
  -1.965e-02   0.000e+00   0.000e+00
  -2.823e-02   0.000e+00   0.000e+00
  -1.327e-02   0.000e+00   0.000e+00
  -1.167e-02   0.000e+00   0.000e+00
  -1.778e-02   0.000e+00   0.000e+00
  -3.106e-02   0.000e+00   0.000e+00
  -4.770e-02   0.000e+00   0.000e+00
  -1.965e-02   0.000e+00   0.000e+00
  -4.770e-02   0.000e+00   0.000e+00
  -2.823e-02   0.000e+00   0.000e+00
  -1.965e-02   0.000e+00   0.000e+00
  -6.046e-02   0.000e+00   0.000e+00
  -2.823e-02   0.000e+00   0.000e+00
  -4.770e-02   0.000e+00   0.000e+00
  -3.106e-02   0.000e+00   0.000e+00
  -1.567e-02   0.000e+00   0.000e+00
  -6.881e-02   0.000e+00   0.000e+00
  -1.567e-02   0.000e+00   0.000e+00
   8.556e-03   0.000e+00   0.000e+00
  -2.450e-02   0.000e+00   0.000e+00
   1.180e-02   0.000e+00   0.000e+00
   1.912e-02   0.000e+00   0.000e+00
   5.084e-03   0.000e+00   0.000e+00
   8.556e-03   0.000e+00   0.000e+00
   2.040e-02   0.000e+00   0.000e+00
   1.189e-02   0.000e+00   0.000e+00
   1.891e-02   0.000e+00   0.000e+00
   5.084e-03   0.000e+00   0.000e+00
  -2.450e-02   0.000e+00   0.000e+00
   8.556e-03   0.000e+00   0.000e+00
  -2.500e-02   0.000e+00   0.000e+00
  -2.450e-02   0.000e+00   0.000e+00
   5.084e-03   0.000e+00   0.000e+00
   2.040e-02   0.000e+00   0.000e+00
   3.474e-02   0.000e+00   0.000e+00
   7.955e-03   0.000e+00   0.000e+00
   3.474e-02   0.000e+00   0.000e+00
   6.239e-02   0.000e+00   0.000e+00
   2.270e-02   0.000e+00   0.000e+00
   6.239e-02   0.000e+00   0.000e+00
   1.065e-01   0.000e+00   0.000e+00
   4.781e-02   0.000e+00   0.000e+00
   1.065e-01   0.000e+00   0.000e+00
   1.718e-01   0.000e+00   0.000e+00
   8.789e-02   0.000e+00   0.000e+00
   1.484e-01   0.000e+00   0.000e+00
   8.713e-02   0.000e+00   0.000e+00
   1.351e-01   0.000e+00   0.000e+00
   8.713e-02   0.000e+00   0.000e+00
   4.630e-02   0.000e+00   0.000e+00
   7.692e-02   0.000e+00   0.000e+00
   4.630e-02   0.000e+00   0.000e+00
   2.043e-02   0.000e+00   0.000e+00
   3.862e-02   0.000e+00   0.000e+00
   2.043e-02   0.000e+00   0.000e+00
   4.849e-03   0.000e+00   0.000e+00
   1.441e-02   0.000e+00   0.000e+00
   4.849e-03   0.000e+00   0.000e+00
  -4.669e-03   0.000e+00   0.000e+00
  -1.058e-03   0.000e+00   0.000e+00
  -6.843e-03   0.000e+00   0.000e+00
  -9.001e-03   0.000e+00   0.000e+00
  -2.273e-02   0.000e+00   0.000e+00
  -4.669e-03   0.000e+00   0.000e+00
  -6.860e-03   0.000e+00   0.000e+00
  -9.194e-03   0.000e+00   0.000e+00
  -9.250e-03   0.000e+00   0.000e+00
  -5.058e-02   0.000e+00   0.000e+00
  -1.402e-02   0.000e+00   0.000e+00
  -1.345e-02   0.000e+00   0.000e+00
  -2.273e-02   0.000e+00   0.000e+00
  -1.399e-02   0.000e+00   0.000e+00
  -1.335e-02   0.000e+00   0.000e+00
  -1.398e-02   0.000e+00   0.000e+00
  -9.001e-03   0.000e+00   0.000e+00
  -1.345e-02   0.000e+00   0.000e+00
  -2.273e-02   0.000e+00   0.000e+00
  -1.398e-02   0.000e+00   0.000e+00
  -9.250e-03   0.000e+00   0.000e+00
  -9.194e-03   0.000e+00   0.000e+00
  -1.335e-02   0.000e+00   0.000e+00
  -1.245e-02   0.000e+00   0.000e+00
  -9.250e-03   0.000e+00   0.000e+00
  -1.398e-02   0.000e+00   0.000e+00
  -5.058e-02   0.000e+00   0.000e+00
  -7.565e-02   0.000e+00   0.000e+00
  -3.411e-02   0.000e+00   0.000e+00
  -7.565e-02   0.000e+00   0.000e+00
  -4.145e-02   0.000e+00   0.000e+00
  -1.090e-01   0.000e+00   0.000e+00
  -4.145e-02   0.000e+00   0.000e+00
  -3.341e-02   0.000e+00   0.000e+00
  -3.657e-02   0.000e+00   0.000e+00
  -9.573e-02   0.000e+00   0.000e+00
  -2.851e-02   0.000e+00   0.000e+00
  -2.865e-02   0.000e+00   0.000e+00
  -2.862e-02   0.000e+00   0.000e+00
  -6.046e-02   0.000e+00   0.000e+00
  -9.364e-02   0.000e+00   0.000e+00
  -3.490e-02   0.000e+00   0.000e+00
  -3.727e-02   0.000e+00   0.000e+00
  -2.864e-02   0.000e+00   0.000e+00
  -2.871e-02   0.000e+00   0.000e+00
  -2.862e-02   0.000e+00   0.000e+00
  -9.364e-02   0.000e+00   0.000e+00
  -9.573e-02   0.000e+00   0.000e+00
  -3.657e-02   0.000e+00   0.000e+00
  -3.727e-02   0.000e+00   0.000e+00
  -2.865e-02   0.000e+00   0.000e+00
  -2.871e-02   0.000e+00   0.000e+00
  -2.862e-02   0.000e+00   0.000e+00
  -1.302e-01   0.000e+00   0.000e+00
  -9.573e-02   0.000e+00   0.000e+00
  -9.364e-02   0.000e+00   0.000e+00
  -6.046e-02   0.000e+00   0.000e+00
  -6.881e-02   0.000e+00   0.000e+00
  -1.244e-01   0.000e+00   0.000e+00
  -6.881e-02   0.000e+00   0.000e+00
  -2.500e-02   0.000e+00   0.000e+00
  -8.314e-02   0.000e+00   0.000e+00
  -2.500e-02   0.000e+00   0.000e+00
   2.480e-03   0.000e+00   0.000e+00
  -2.639e-03   0.000e+00   0.000e+00
  -1.574e-02   0.000e+00   0.000e+00
   1.916e-03   0.000e+00   0.000e+00
  -2.133e-03   0.000e+00   0.000e+00
   2.903e-03   0.000e+00   0.000e+00
   7.955e-03   0.000e+00   0.000e+00
  -2.257e-03   0.000e+00   0.000e+00
   2.903e-03   0.000e+00   0.000e+00
  -2.639e-03   0.000e+00   0.000e+00
  -5.394e-03   0.000e+00   0.000e+00
  -1.574e-02   0.000e+00   0.000e+00
  -2.257e-03   0.000e+00   0.000e+00
  -2.133e-03   0.000e+00   0.000e+00
  -6.141e-03   0.000e+00   0.000e+00
   2.903e-03   0.000e+00   0.000e+00
  -5.394e-03   0.000e+00   0.000e+00
  -8.054e-03   0.000e+00   0.000e+00
  -1.574e-02   0.000e+00   0.000e+00
  -1.196e-02   0.000e+00   0.000e+00
  -6.141e-03   0.000e+00   0.000e+00
  -9.104e-03   0.000e+00   0.000e+00
  -2.257e-03   0.000e+00   0.000e+00
   7.955e-03   0.000e+00   0.000e+00
   2.270e-02   0.000e+00   0.000e+00
   2.289e-04   0.000e+00   0.000e+00
   2.270e-02   0.000e+00   0.000e+00
   4.781e-02   0.000e+00   0.000e+00
   1.605e-02   0.000e+00   0.000e+00
   4.781e-02   0.000e+00   0.000e+00
   8.789e-02   0.000e+00   0.000e+00
   4.005e-02   0.000e+00   0.000e+00
   8.789e-02   0.000e+00   0.000e+00
   1.483e-01   0.000e+00   0.000e+00
   7.772e-02   0.000e+00   0.000e+00
   1.351e-01   0.000e+00   0.000e+00
   7.692e-02   0.000e+00   0.000e+00
   1.308e-01   0.000e+00   0.000e+00
   7.692e-02   0.000e+00   0.000e+00
   3.862e-02   0.000e+00   0.000e+00
   7.396e-02   0.000e+00   0.000e+00
   3.862e-02   0.000e+00   0.000e+00
   1.441e-02   0.000e+00   0.000e+00
   3.695e-02   0.000e+00   0.000e+00
   1.441e-02   0.000e+00   0.000e+00
  -1.058e-03   0.000e+00   0.000e+00
   1.385e-02   0.000e+00   0.000e+00
  -1.058e-03   0.000e+00   0.000e+00
  -1.245e-02   0.000e+00   0.000e+00
  -1.660e-03   0.000e+00   0.000e+00
  -1.245e-02   0.000e+00   0.000e+00
  -1.784e-02   0.000e+00   0.000e+00
  -1.439e-02   0.000e+00   0.000e+00
  -3.411e-02   0.000e+00   0.000e+00
  -2.347e-02   0.000e+00   0.000e+00
  -2.314e-02   0.000e+00   0.000e+00
  -2.312e-02   0.000e+00   0.000e+00
  -2.212e-02   0.000e+00   0.000e+00
  -2.039e-02   0.000e+00   0.000e+00
  -1.784e-02   0.000e+00   0.000e+00
  -2.039e-02   0.000e+00   0.000e+00
  -1.439e-02   0.000e+00   0.000e+00
  -1.784e-02   0.000e+00   0.000e+00
  -1.506e-02   0.000e+00   0.000e+00
  -1.439e-02   0.000e+00   0.000e+00
  -2.039e-02   0.000e+00   0.000e+00
  -3.411e-02   0.000e+00   0.000e+00
  -7.525e-02   0.000e+00   0.000e+00
  -2.367e-02   0.000e+00   0.000e+00
  -3.352e-02   0.000e+00   0.000e+00
  -2.505e-02   0.000e+00   0.000e+00
  -2.880e-02   0.000e+00   0.000e+00
  -2.719e-02   0.000e+00   0.000e+00
  -1.090e-01   0.000e+00   0.000e+00
  -7.605e-02   0.000e+00   0.000e+00
  -7.525e-02   0.000e+00   0.000e+00
  -7.605e-02   0.000e+00   0.000e+00
  -3.352e-02   0.000e+00   0.000e+00
  -4.292e-02   0.000e+00   0.000e+00
  -7.525e-02   0.000e+00   0.000e+00
  -2.880e-02   0.000e+00   0.000e+00
  -3.102e-02   0.000e+00   0.000e+00
  -2.719e-02   0.000e+00   0.000e+00
  -5.064e-02   0.000e+00   0.000e+00
  -4.292e-02   0.000e+00   0.000e+00
  -2.976e-02   0.000e+00   0.000e+00
  -7.605e-02   0.000e+00   0.000e+00
  -3.102e-02   0.000e+00   0.000e+00
  -2.810e-02   0.000e+00   0.000e+00
  -2.719e-02   0.000e+00   0.000e+00
  -1.090e-01   0.000e+00   0.000e+00
  -1.302e-01   0.000e+00   0.000e+00
  -1.279e-01   0.000e+00   0.000e+00
  -1.302e-01   0.000e+00   0.000e+00
  -1.244e-01   0.000e+00   0.000e+00
  -1.596e-01   0.000e+00   0.000e+00
  -1.244e-01   0.000e+00   0.000e+00
  -8.314e-02   0.000e+00   0.000e+00
  -1.518e-01   0.000e+00   0.000e+00
  -8.314e-02   0.000e+00   0.000e+00
  -4.173e-02   0.000e+00   0.000e+00
  -8.698e-02   0.000e+00   0.000e+00
  -1.365e-02   0.000e+00   0.000e+00
  -2.854e-02   0.000e+00   0.000e+00
  -4.173e-02   0.000e+00   0.000e+00
  -1.196e-02   0.000e+00   0.000e+00
  -2.295e-02   0.000e+00   0.000e+00
  -1.459e-02   0.000e+00   0.000e+00
  -2.242e-02   0.000e+00   0.000e+00
  -2.854e-02   0.000e+00   0.000e+00
  -3.315e-02   0.000e+00   0.000e+00
  -8.698e-02   0.000e+00   0.000e+00
  -4.173e-02   0.000e+00   0.000e+00
  -2.295e-02   0.000e+00   0.000e+00
  -2.242e-02   0.000e+00   0.000e+00
  -2.376e-02   0.000e+00   0.000e+00
  -1.020e-01   0.000e+00   0.000e+00
  -8.698e-02   0.000e+00   0.000e+00
  -3.315e-02   0.000e+00   0.000e+00
  -3.132e-02   0.000e+00   0.000e+00
  -2.376e-02   0.000e+00   0.000e+00
  -2.381e-02   0.000e+00   0.000e+00
  -2.295e-02   0.000e+00   0.000e+00
  -1.196e-02   0.000e+00   0.000e+00
  -6.093e-03   0.000e+00   0.000e+00
  -1.538e-02   0.000e+00   0.000e+00
   2.289e-04   0.000e+00   0.000e+00
  -8.575e-03   0.000e+00   0.000e+00
  -6.093e-03   0.000e+00   0.000e+00
  -8.575e-03   0.000e+00   0.000e+00
  -1.538e-02   0.000e+00   0.000e+00
  -6.093e-03   0.000e+00   0.000e+00
  -2.383e-02   0.000e+00   0.000e+00
  -1.520e-02   0.000e+00   0.000e+00
  -1.629e-02   0.000e+00   0.000e+00
  -1.682e-02   0.000e+00   0.000e+00
  -1.612e-02   0.000e+00   0.000e+00
  -1.538e-02   0.000e+00   0.000e+00
  -8.575e-03   0.000e+00   0.000e+00
   2.289e-04   0.000e+00   0.000e+00
   1.605e-02   0.000e+00   0.000e+00
  -1.697e-03   0.000e+00   0.000e+00
   1.605e-02   0.000e+00   0.000e+00
   4.005e-02   0.000e+00   0.000e+00
   1.546e-02   0.000e+00   0.000e+00
   4.005e-02   0.000e+00   0.000e+00
   7.772e-02   0.000e+00   0.000e+00
   3.875e-02   0.000e+00   0.000e+00
   7.772e-02   0.000e+00   0.000e+00
   1.351e-01   0.000e+00   0.000e+00
   7.497e-02   0.000e+00   0.000e+00
   1.308e-01   0.000e+00   0.000e+00
   7.396e-02   0.000e+00   0.000e+00
   1.351e-01   0.000e+00   0.000e+00
   7.396e-02   0.000e+00   0.000e+00
   3.695e-02   0.000e+00   0.000e+00
   7.774e-02   0.000e+00   0.000e+00
   3.695e-02   0.000e+00   0.000e+00
   1.385e-02   0.000e+00   0.000e+00
   4.077e-02   0.000e+00   0.000e+00
   1.385e-02   0.000e+00   0.000e+00
  -1.660e-03   0.000e+00   0.000e+00
   1.915e-02   0.000e+00   0.000e+00
  -1.660e-03   0.000e+00   0.000e+00
  -8.380e-03   0.000e+00   0.000e+00
   6.926e-04   0.000e+00   0.000e+00
  -1.014e-02   0.000e+00   0.000e+00
  -6.820e-03   0.000e+00   0.000e+00
  -1.179e-02   0.000e+00   0.000e+00
  -1.506e-02   0.000e+00   0.000e+00
  -1.003e-02   0.000e+00   0.000e+00
  -7.192e-03   0.000e+00   0.000e+00
  -8.380e-03   0.000e+00   0.000e+00
  -1.179e-02   0.000e+00   0.000e+00
  -6.820e-03   0.000e+00   0.000e+00
  -4.350e-03   0.000e+00   0.000e+00
  -7.192e-03   0.000e+00   0.000e+00
  -4.394e-03   0.000e+00   0.000e+00
   6.926e-04   0.000e+00   0.000e+00
  -8.380e-03   0.000e+00   0.000e+00
  -5.070e-03   0.000e+00   0.000e+00
  -4.350e-03   0.000e+00   0.000e+00
   3.070e-03   0.000e+00   0.000e+00
  -1.179e-02   0.000e+00   0.000e+00
  -4.394e-03   0.000e+00   0.000e+00
   2.752e-03   0.000e+00   0.000e+00
   6.926e-04   0.000e+00   0.000e+00
  -2.202e-02   0.000e+00   0.000e+00
  -1.462e-02   0.000e+00   0.000e+00
  -2.383e-02   0.000e+00   0.000e+00
  -3.432e-02   0.000e+00   0.000e+00
  -1.506e-02   0.000e+00   0.000e+00
  -2.093e-02   0.000e+00   0.000e+00
  -1.496e-02   0.000e+00   0.000e+00
  -5.064e-02   0.000e+00   0.000e+00
  -5.612e-02   0.000e+00   0.000e+00
  -2.383e-02   0.000e+00   0.000e+00
  -5.612e-02   0.000e+00   0.000e+00
  -3.432e-02   0.000e+00   0.000e+00
  -2.383e-02   0.000e+00   0.000e+00
  -4.924e-02   0.000e+00   0.000e+00
  -3.432e-02   0.000e+00   0.000e+00
  -5.612e-02   0.000e+00   0.000e+00
  -5.064e-02   0.000e+00   0.000e+00
  -1.279e-01   0.000e+00   0.000e+00
  -8.696e-02   0.000e+00   0.000e+00
  -1.279e-01   0.000e+00   0.000e+00
  -1.596e-01   0.000e+00   0.000e+00
  -1.256e-01   0.000e+00   0.000e+00
  -1.596e-01   0.000e+00   0.000e+00
  -1.518e-01   0.000e+00   0.000e+00
  -1.519e-01   0.000e+00   0.000e+00
  -1.518e-01   0.000e+00   0.000e+00
  -1.020e-01   0.000e+00   0.000e+00
  -1.449e-01   0.000e+00   0.000e+00
  -1.020e-01   0.000e+00   0.000e+00
  -2.383e-02   0.000e+00   0.000e+00
  -1.089e-01   0.000e+00   0.000e+00
  -2.383e-02   0.000e+00   0.000e+00
  -1.446e-02   0.000e+00   0.000e+00
  -1.017e-02   0.000e+00   0.000e+00
  -5.649e-02   0.000e+00   0.000e+00
  -1.409e-02   0.000e+00   0.000e+00
  -1.068e-02   0.000e+00   0.000e+00
  -9.460e-03   0.000e+00   0.000e+00
  -4.954e-03   0.000e+00   0.000e+00
  -8.870e-03   0.000e+00   0.000e+00
  -3.352e-02   0.000e+00   0.000e+00
  -1.697e-03   0.000e+00   0.000e+00
  -4.879e-03   0.000e+00   0.000e+00
  -9.468e-03   0.000e+00   0.000e+00
  -9.460e-03   0.000e+00   0.000e+00
  -3.352e-02   0.000e+00   0.000e+00
  -5.649e-02   0.000e+00   0.000e+00
  -1.017e-02   0.000e+00   0.000e+00
  -8.870e-03   0.000e+00   0.000e+00
  -1.068e-02   0.000e+00   0.000e+00
  -9.468e-03   0.000e+00   0.000e+00
  -9.460e-03   0.000e+00   0.000e+00
  -6.710e-02   0.000e+00   0.000e+00
  -5.649e-02   0.000e+00   0.000e+00
  -3.352e-02   0.000e+00   0.000e+00
  -6.483e-04   0.000e+00   0.000e+00
   1.602e-03   0.000e+00   0.000e+00
  -1.037e-02   0.000e+00   0.000e+00
  -1.697e-03   0.000e+00   0.000e+00
   6.455e-03   0.000e+00   0.000e+00
  -8.208e-04   0.000e+00   0.000e+00
   1.381e-03   0.000e+00   0.000e+00
   1.546e-02   0.000e+00   0.000e+00
   8.764e-03   0.000e+00   0.000e+00
   6.455e-03   0.000e+00   0.000e+00
   1.602e-03   0.000e+00   0.000e+00
   5.301e-03   0.000e+00   0.000e+00
  -1.037e-02   0.000e+00   0.000e+00
   8.764e-03   0.000e+00   0.000e+00
   1.381e-03   0.000e+00   0.000e+00
   5.427e-03   0.000e+00   0.000e+00
   6.455e-03   0.000e+00   0.000e+00
  -2.619e-02   0.000e+00   0.000e+00
  -1.037e-02   0.000e+00   0.000e+00
   5.301e-03   0.000e+00   0.000e+00
   8.200e-03   0.000e+00   0.000e+00
   5.427e-03   0.000e+00   0.000e+00
   8.016e-03   0.000e+00   0.000e+00
   8.764e-03   0.000e+00   0.000e+00
   1.546e-02   0.000e+00   0.000e+00
   3.875e-02   0.000e+00   0.000e+00
   2.308e-02   0.000e+00   0.000e+00
   3.875e-02   0.000e+00   0.000e+00
   7.497e-02   0.000e+00   0.000e+00
   4.366e-02   0.000e+00   0.000e+00
   7.497e-02   0.000e+00   0.000e+00
   1.308e-01   0.000e+00   0.000e+00
   7.909e-02   0.000e+00   0.000e+00
   1.351e-01   0.000e+00   0.000e+00
   7.774e-02   0.000e+00   0.000e+00
   1.483e-01   0.000e+00   0.000e+00
   7.774e-02   0.000e+00   0.000e+00
   4.077e-02   0.000e+00   0.000e+00
   8.834e-02   0.000e+00   0.000e+00
   4.077e-02   0.000e+00   0.000e+00
   1.915e-02   0.000e+00   0.000e+00
   4.934e-02   0.000e+00   0.000e+00
   1.915e-02   0.000e+00   0.000e+00
   1.199e-02   0.000e+00   0.000e+00
   2.340e-02   0.000e+00   0.000e+00
  -5.070e-03   0.000e+00   0.000e+00
   1.576e-02   0.000e+00   0.000e+00
   9.541e-03   0.000e+00   0.000e+00
   1.661e-02   0.000e+00   0.000e+00
   9.012e-03   0.000e+00   0.000e+00
   1.635e-02   0.000e+00   0.000e+00
   1.199e-02   0.000e+00   0.000e+00
   1.576e-02   0.000e+00   0.000e+00
   1.661e-02   0.000e+00   0.000e+00
   1.998e-02   0.000e+00   0.000e+00
   1.635e-02   0.000e+00   0.000e+00
   1.899e-02   0.000e+00   0.000e+00
   2.340e-02   0.000e+00   0.000e+00
   1.199e-02   0.000e+00   0.000e+00
   1.998e-02   0.000e+00   0.000e+00
   1.980e-02   0.000e+00   0.000e+00
   1.576e-02   0.000e+00   0.000e+00
   2.758e-02   0.000e+00   0.000e+00
   2.340e-02   0.000e+00   0.000e+00
   1.899e-02   0.000e+00   0.000e+00
   1.985e-02   0.000e+00   0.000e+00
  -5.070e-03   0.000e+00   0.000e+00
  -4.924e-02   0.000e+00   0.000e+00
  -6.929e-04   0.000e+00   0.000e+00
  -4.924e-02   0.000e+00   0.000e+00
  -8.696e-02   0.000e+00   0.000e+00
  -3.083e-02   0.000e+00   0.000e+00
  -8.696e-02   0.000e+00   0.000e+00
  -1.256e-01   0.000e+00   0.000e+00
  -4.140e-02   0.000e+00   0.000e+00
  -1.256e-01   0.000e+00   0.000e+00
  -1.519e-01   0.000e+00   0.000e+00
  -5.038e-02   0.000e+00   0.000e+00
  -1.519e-01   0.000e+00   0.000e+00
  -1.449e-01   0.000e+00   0.000e+00
  -1.123e-01   0.000e+00   0.000e+00
  -1.449e-01   0.000e+00   0.000e+00
  -1.089e-01   0.000e+00   0.000e+00
  -9.922e-02   0.000e+00   0.000e+00
  -1.089e-01   0.000e+00   0.000e+00
  -6.710e-02   0.000e+00   0.000e+00
  -3.624e-02   0.000e+00   0.000e+00
  -6.710e-02   0.000e+00   0.000e+00
  -2.619e-02   0.000e+00   0.000e+00
  -3.356e-02   0.000e+00   0.000e+00
  -2.619e-02   0.000e+00   0.000e+00
  -2.341e-03   0.000e+00   0.000e+00
  -2.695e-02   0.000e+00   0.000e+00
   2.364e-02   0.000e+00   0.000e+00
   2.249e-02   0.000e+00   0.000e+00
  -5.569e-03   0.000e+00   0.000e+00
  -2.341e-03   0.000e+00   0.000e+00
   2.308e-02   0.000e+00   0.000e+00
   2.302e-02   0.000e+00   0.000e+00
   2.193e-02   0.000e+00   0.000e+00
  -5.569e-03   0.000e+00   0.000e+00
  -2.695e-02   0.000e+00   0.000e+00
  -2.341e-03   0.000e+00   0.000e+00
  -1.327e-02   0.000e+00   0.000e+00
  -2.695e-02   0.000e+00   0.000e+00
  -5.569e-03   0.000e+00   0.000e+00
   2.452e-02   0.000e+00   0.000e+00
   3.061e-02   0.000e+00   0.000e+00
   2.078e-02   0.000e+00   0.000e+00
   2.308e-02   0.000e+00   0.000e+00
   3.212e-02   0.000e+00   0.000e+00
   2.439e-02   0.000e+00   0.000e+00
   3.046e-02   0.000e+00   0.000e+00
   4.366e-02   0.000e+00   0.000e+00
   3.745e-02   0.000e+00   0.000e+00
   3.212e-02   0.000e+00   0.000e+00
   3.061e-02   0.000e+00   0.000e+00
   3.450e-02   0.000e+00   0.000e+00
   2.078e-02   0.000e+00   0.000e+00
   3.745e-02   0.000e+00   0.000e+00
   3.046e-02   0.000e+00   0.000e+00
   3.344e-02   0.000e+00   0.000e+00
   3.212e-02   0.000e+00   0.000e+00
   2.843e-02   0.000e+00   0.000e+00
   2.078e-02   0.000e+00   0.000e+00
   3.450e-02   0.000e+00   0.000e+00
   3.626e-02   0.000e+00   0.000e+00
   3.344e-02   0.000e+00   0.000e+00
   3.622e-02   0.000e+00   0.000e+00
   3.745e-02   0.000e+00   0.000e+00
   4.366e-02   0.000e+00   0.000e+00
   7.909e-02   0.000e+00   0.000e+00
   5.282e-02   0.000e+00   0.000e+00
   7.909e-02   0.000e+00   0.000e+00
   1.351e-01   0.000e+00   0.000e+00
   8.979e-02   0.000e+00   0.000e+00
   1.483e-01   0.000e+00   0.000e+00
   8.834e-02   0.000e+00   0.000e+00
   1.718e-01   0.000e+00   0.000e+00
   8.834e-02   0.000e+00   0.000e+00
   4.934e-02   0.000e+00   0.000e+00
   1.068e-01   0.000e+00   0.000e+00
   4.934e-02   0.000e+00   0.000e+00
   2.758e-02   0.000e+00   0.000e+00
   6.315e-02   0.000e+00   0.000e+00
   2.441e-02   0.000e+00   0.000e+00
   2.458e-02   0.000e+00   0.000e+00
   2.213e-02   0.000e+00   0.000e+00
   2.758e-02   0.000e+00   0.000e+00
   2.367e-02   0.000e+00   0.000e+00
   2.360e-02   0.000e+00   0.000e+00
   3.123e-02   0.000e+00   0.000e+00
  -6.929e-04   0.000e+00   0.000e+00
   2.228e-02   0.000e+00   0.000e+00
   2.405e-02   0.000e+00   0.000e+00
   2.213e-02   0.000e+00   0.000e+00
   2.180e-02   0.000e+00   0.000e+00
   2.340e-02   0.000e+00   0.000e+00
   2.410e-02   0.000e+00   0.000e+00
   2.458e-02   0.000e+00   0.000e+00
   2.405e-02   0.000e+00   0.000e+00
   2.213e-02   0.000e+00   0.000e+00
   2.410e-02   0.000e+00   0.000e+00
   3.123e-02   0.000e+00   0.000e+00
   2.360e-02   0.000e+00   0.000e+00
   2.340e-02   0.000e+00   0.000e+00
   3.584e-02   0.000e+00   0.000e+00
   3.123e-02   0.000e+00   0.000e+00
   2.410e-02   0.000e+00   0.000e+00
  -6.929e-04   0.000e+00   0.000e+00
  -1.818e-02   0.000e+00   0.000e+00
   1.809e-02   0.000e+00   0.000e+00
   1.728e-02   0.000e+00   0.000e+00
   1.800e-02   0.000e+00   0.000e+00
   1.719e-02   0.000e+00   0.000e+00
   1.781e-02   0.000e+00   0.000e+00
  -3.083e-02   0.000e+00   0.000e+00
   7.457e-03   0.000e+00   0.000e+00
  -1.818e-02   0.000e+00   0.000e+00
   7.457e-03   0.000e+00   0.000e+00
   1.728e-02   0.000e+00   0.000e+00
   1.281e-02   0.000e+00   0.000e+00
  -1.818e-02   0.000e+00   0.000e+00
   1.719e-02   0.000e+00   0.000e+00
   1.322e-02   0.000e+00   0.000e+00
   1.781e-02   0.000e+00   0.000e+00
   1.281e-02   0.000e+00   0.000e+00
   1.058e-02   0.000e+00   0.000e+00
   7.457e-03   0.000e+00   0.000e+00
   1.851e-02   0.000e+00   0.000e+00
   1.781e-02   0.000e+00   0.000e+00
   1.322e-02   0.000e+00   0.000e+00
   1.035e-02   0.000e+00   0.000e+00
  -3.083e-02   0.000e+00   0.000e+00
  -3.854e-02   0.000e+00   0.000e+00
  -4.207e-04   0.000e+00   0.000e+00
  -4.140e-02   0.000e+00   0.000e+00
  -5.555e-03   0.000e+00   0.000e+00
  -4.666e-03   0.000e+00   0.000e+00
  -3.854e-02   0.000e+00   0.000e+00
  -5.596e-03   0.000e+00   0.000e+00
  -4.974e-03   0.000e+00   0.000e+00
  -4.803e-03   0.000e+00   0.000e+00
  -4.666e-03   0.000e+00   0.000e+00
  -1.912e-03   0.000e+00   0.000e+00
  -4.207e-04   0.000e+00   0.000e+00
  -3.854e-02   0.000e+00   0.000e+00
  -4.803e-03   0.000e+00   0.000e+00
  -4.974e-03   0.000e+00   0.000e+00
  -1.854e-03   0.000e+00   0.000e+00
  -1.912e-03   0.000e+00   0.000e+00
   2.539e-03   0.000e+00   0.000e+00
  -4.207e-04   0.000e+00   0.000e+00
   4.495e-03   0.000e+00   0.000e+00
  -1.854e-03   0.000e+00   0.000e+00
   2.362e-03   0.000e+00   0.000e+00
  -4.803e-03   0.000e+00   0.000e+00
  -4.140e-02   0.000e+00   0.000e+00
  -4.292e-02   0.000e+00   0.000e+00
  -1.333e-02   0.000e+00   0.000e+00
  -1.338e-02   0.000e+00   0.000e+00
  -1.193e-02   0.000e+00   0.000e+00
  -1.489e-02   0.000e+00   0.000e+00
  -1.079e-02   0.000e+00   0.000e+00
  -5.038e-02   0.000e+00   0.000e+00
  -2.743e-02   0.000e+00   0.000e+00
  -1.893e-02   0.000e+00   0.000e+00
  -4.292e-02   0.000e+00   0.000e+00
  -2.426e-02   0.000e+00   0.000e+00
  -1.875e-02   0.000e+00   0.000e+00
  -1.610e-02   0.000e+00   0.000e+00
  -1.338e-02   0.000e+00   0.000e+00
  -1.893e-02   0.000e+00   0.000e+00
  -4.292e-02   0.000e+00   0.000e+00
  -1.610e-02   0.000e+00   0.000e+00
  -1.079e-02   0.000e+00   0.000e+00
  -1.489e-02   0.000e+00   0.000e+00
  -1.875e-02   0.000e+00   0.000e+00
  -6.598e-03   0.000e+00   0.000e+00
  -1.079e-02   0.000e+00   0.000e+00
  -1.610e-02   0.000e+00   0.000e+00
  -5.038e-02   0.000e+00   0.000e+00
  -9.040e-02   0.000e+00   0.000e+00
  -2.772e-02   0.000e+00   0.000e+00
  -2.701e-02   0.000e+00   0.000e+00
  -2.437e-02   0.000e+00   0.000e+00
  -2.300e-02   0.000e+00   0.000e+00
  -2.077e-02   0.000e+00   0.000e+00
  -1.123e-01   0.000e+00   0.000e+00
  -6.277e-02   0.000e+00   0.000e+00
  -9.040e-02   0.000e+00   0.000e+00
  -6.277e-02   0.000e+00   0.000e+00
  -2.701e-02   0.000e+00   0.000e+00
  -2.357e-02   0.000e+00   0.000e+00
  -9.040e-02   0.000e+00   0.000e+00
  -2.300e-02   0.000e+00   0.000e+00
  -2.177e-02   0.000e+00   0.000e+00
  -2.077e-02   0.000e+00   0.000e+00
  -2.357e-02   0.000e+00   0.000e+00
  -1.708e-02   0.000e+00   0.000e+00
  -6.277e-02   0.000e+00   0.000e+00
  -1.443e-02   0.000e+00   0.000e+00
  -2.077e-02   0.000e+00   0.000e+00
  -2.177e-02   0.000e+00   0.000e+00
  -1.713e-02   0.000e+00   0.000e+00
  -1.123e-01   0.000e+00   0.000e+00
  -9.922e-02   0.000e+00   0.000e+00
  -6.876e-02   0.000e+00   0.000e+00
  -9.922e-02   0.000e+00   0.000e+00
  -3.624e-02   0.000e+00   0.000e+00
  -5.434e-02   0.000e+00   0.000e+00
  -3.624e-02   0.000e+00   0.000e+00
  -3.667e-02   0.000e+00   0.000e+00
  -1.736e-02   0.000e+00   0.000e+00
  -1.138e-02   0.000e+00   0.000e+00
  -1.516e-02   0.000e+00   0.000e+00
  -1.150e-02   0.000e+00   0.000e+00
  -1.146e-02   0.000e+00   0.000e+00
  -3.356e-02   0.000e+00   0.000e+00
  -8.326e-03   0.000e+00   0.000e+00
  -8.704e-03   0.000e+00   0.000e+00
  -3.667e-02   0.000e+00   0.000e+00
  -6.341e-03   0.000e+00   0.000e+00
  -8.466e-03   0.000e+00   0.000e+00
  -6.725e-03   0.000e+00   0.000e+00
  -1.138e-02   0.000e+00   0.000e+00
  -8.704e-03   0.000e+00   0.000e+00
  -3.667e-02   0.000e+00   0.000e+00
  -6.725e-03   0.000e+00   0.000e+00
  -1.146e-02   0.000e+00   0.000e+00
  -1.150e-02   0.000e+00   0.000e+00
  -8.466e-03   0.000e+00   0.000e+00
  -5.581e-03   0.000e+00   0.000e+00
  -1.146e-02   0.000e+00   0.000e+00
  -6.725e-03   0.000e+00   0.000e+00
  -3.356e-02   0.000e+00   0.000e+00
  -2.596e-02   0.000e+00   0.000e+00
  -1.145e-03   0.000e+00   0.000e+00
  -2.761e-04   0.000e+00   0.000e+00
  -1.166e-03   0.000e+00   0.000e+00
  -3.040e-04   0.000e+00   0.000e+00
  -6.474e-04   0.000e+00   0.000e+00
  -1.327e-02   0.000e+00   0.000e+00
   5.534e-03   0.000e+00   0.000e+00
  -2.596e-02   0.000e+00   0.000e+00
   5.534e-03   0.000e+00   0.000e+00
  -2.761e-04   0.000e+00   0.000e+00
   4.739e-03   0.000e+00   0.000e+00
  -2.596e-02   0.000e+00   0.000e+00
  -3.040e-04   0.000e+00   0.000e+00
   4.803e-03   0.000e+00   0.000e+00
  -6.474e-04   0.000e+00   0.000e+00
   4.739e-03   0.000e+00   0.000e+00
   6.905e-03   0.000e+00   0.000e+00
   5.534e-03   0.000e+00   0.000e+00
   3.678e-03   0.000e+00   0.000e+00
  -6.474e-04   0.000e+00   0.000e+00
   4.803e-03   0.000e+00   0.000e+00
   6.802e-03   0.000e+00   0.000e+00
  -1.327e-02   0.000e+00   0.000e+00
   4.740e-03   0.000e+00   0.000e+00
   1.315e-02   0.000e+00   0.000e+00
   2.843e-02   0.000e+00   0.000e+00
   2.721e-02   0.000e+00   0.000e+00
   2.716e-02   0.000e+00   0.000e+00
   4.740e-03   0.000e+00   0.000e+00
   2.666e-02   0.000e+00   0.000e+00
   2.609e-02   0.000e+00   0.000e+00
   2.612e-02   0.000e+00   0.000e+00
   2.716e-02   0.000e+00   0.000e+00
   2.467e-02   0.000e+00   0.000e+00
   1.315e-02   0.000e+00   0.000e+00
   4.740e-03   0.000e+00   0.000e+00
   2.612e-02   0.000e+00   0.000e+00
   2.609e-02   0.000e+00   0.000e+00
   2.426e-02   0.000e+00   0.000e+00
   2.467e-02   0.000e+00   0.000e+00
   1.645e-02   0.000e+00   0.000e+00
   1.315e-02   0.000e+00   0.000e+00
   1.854e-02   0.000e+00   0.000e+00
   2.426e-02   0.000e+00   0.000e+00
   1.629e-02   0.000e+00   0.000e+00
   2.612e-02   0.000e+00   0.000e+00
   2.843e-02   0.000e+00   0.000e+00
   3.874e-02   0.000e+00   0.000e+00
   3.602e-02   0.000e+00   0.000e+00
   3.810e-02   0.000e+00   0.000e+00
   3.572e-02   0.000e+00   0.000e+00
   4.212e-02   0.000e+00   0.000e+00
   3.576e-02   0.000e+00   0.000e+00
   5.282e-02   0.000e+00   0.000e+00
   4.544e-02   0.000e+00   0.000e+00
   4.212e-02   0.000e+00   0.000e+00
   4.544e-02   0.000e+00   0.000e+00
   3.576e-02   0.000e+00   0.000e+00
   4.212e-02   0.000e+00   0.000e+00
   3.825e-02   0.000e+00   0.000e+00
   3.576e-02   0.000e+00   0.000e+00
   4.544e-02   0.000e+00   0.000e+00
   5.282e-02   0.000e+00   0.000e+00
   8.979e-02   0.000e+00   0.000e+00
   6.547e-02   0.000e+00   0.000e+00
   8.979e-02   0.000e+00   0.000e+00
   1.484e-01   0.000e+00   0.000e+00
   1.079e-01   0.000e+00   0.000e+00
   1.718e-01   0.000e+00   0.000e+00
   1.068e-01   0.000e+00   0.000e+00
   2.076e-01   0.000e+00   0.000e+00
   1.068e-01   0.000e+00   0.000e+00
   6.315e-02   0.000e+00   0.000e+00
   1.352e-01   0.000e+00   0.000e+00
   6.315e-02   0.000e+00   0.000e+00
   3.584e-02   0.000e+00   0.000e+00
   8.493e-02   0.000e+00   0.000e+00
   3.584e-02   0.000e+00   0.000e+00
   1.851e-02   0.000e+00   0.000e+00
   5.128e-02   0.000e+00   0.000e+00
   1.851e-02   0.000e+00   0.000e+00
   4.495e-03   0.000e+00   0.000e+00
   2.905e-02   0.000e+00   0.000e+00
   4.495e-03   0.000e+00   0.000e+00
  -6.598e-03   0.000e+00   0.000e+00
   1.417e-02   0.000e+00   0.000e+00
  -6.598e-03   0.000e+00   0.000e+00
  -1.443e-02   0.000e+00   0.000e+00
   4.683e-03   0.000e+00   0.000e+00
  -1.379e-02   0.000e+00   0.000e+00
  -9.976e-03   0.000e+00   0.000e+00
  -4.611e-02   0.000e+00   0.000e+00
  -1.443e-02   0.000e+00   0.000e+00
  -1.520e-02   0.000e+00   0.000e+00
  -1.030e-02   0.000e+00   0.000e+00
  -7.560e-03   0.000e+00   0.000e+00
  -6.876e-02   0.000e+00   0.000e+00
  -3.184e-02   0.000e+00   0.000e+00
  -4.611e-02   0.000e+00   0.000e+00
  -3.184e-02   0.000e+00   0.000e+00
  -9.976e-03   0.000e+00   0.000e+00
  -7.702e-03   0.000e+00   0.000e+00
  -4.611e-02   0.000e+00   0.000e+00
  -1.030e-02   0.000e+00   0.000e+00
  -8.147e-03   0.000e+00   0.000e+00
  -7.560e-03   0.000e+00   0.000e+00
  -7.702e-03   0.000e+00   0.000e+00
  -3.199e-03   0.000e+00   0.000e+00
  -3.184e-02   0.000e+00   0.000e+00
   2.939e-04   0.000e+00   0.000e+00
  -7.560e-03   0.000e+00   0.000e+00
  -8.147e-03   0.000e+00   0.000e+00
  -3.303e-03   0.000e+00   0.000e+00
  -6.876e-02   0.000e+00   0.000e+00
  -5.434e-02   0.000e+00   0.000e+00
  -3.313e-02   0.000e+00   0.000e+00
  -5.434e-02   0.000e+00   0.000e+00
  -1.227e-02   0.000e+00   0.000e+00
  -3.646e-02   0.000e+00   0.000e+00
  -1.411e-03   0.000e+00   0.000e+00
  -9.451e-03   0.000e+00   0.000e+00
  -1.892e-03   0.000e+00   0.000e+00
  -1.227e-02   0.000e+00   0.000e+00
  -5.581e-03   0.000e+00   0.000e+00
  -1.320e-03   0.000e+00   0.000e+00
  -7.854e-03   0.000e+00   0.000e+00
  -1.892e-03   0.000e+00   0.000e+00
  -3.646e-02   0.000e+00   0.000e+00
  -1.227e-02   0.000e+00   0.000e+00
  -1.916e-02   0.000e+00   0.000e+00
  -3.646e-02   0.000e+00   0.000e+00
  -1.892e-03   0.000e+00   0.000e+00
  -5.581e-03   0.000e+00   0.000e+00
   3.678e-03   0.000e+00   0.000e+00
   7.903e-03   0.000e+00   0.000e+00
   3.678e-03   0.000e+00   0.000e+00
   1.854e-02   0.000e+00   0.000e+00
   1.556e-02   0.000e+00   0.000e+00
   1.854e-02   0.000e+00   0.000e+00
   3.825e-02   0.000e+00   0.000e+00
   3.012e-02   0.000e+00   0.000e+00
   3.825e-02   0.000e+00   0.000e+00
   6.547e-02   0.000e+00   0.000e+00
   5.266e-02   0.000e+00   0.000e+00
   6.547e-02   0.000e+00   0.000e+00
   1.079e-01   0.000e+00   0.000e+00
   8.623e-02   0.000e+00   0.000e+00
   1.079e-01   0.000e+00   0.000e+00
   1.719e-01   0.000e+00   0.000e+00
   1.360e-01   0.000e+00   0.000e+00
   2.076e-01   0.000e+00   0.000e+00
   1.352e-01   0.000e+00   0.000e+00
   2.585e-01   0.000e+00   0.000e+00
   1.352e-01   0.000e+00   0.000e+00
   8.493e-02   0.000e+00   0.000e+00
   1.768e-01   0.000e+00   0.000e+00
   8.493e-02   0.000e+00   0.000e+00
   5.128e-02   0.000e+00   0.000e+00
   1.183e-01   0.000e+00   0.000e+00
   5.128e-02   0.000e+00   0.000e+00
   2.905e-02   0.000e+00   0.000e+00
   7.759e-02   0.000e+00   0.000e+00
   2.905e-02   0.000e+00   0.000e+00
   1.417e-02   0.000e+00   0.000e+00
   5.011e-02   0.000e+00   0.000e+00
   1.417e-02   0.000e+00   0.000e+00
   4.683e-03   0.000e+00   0.000e+00
   3.223e-02   0.000e+00   0.000e+00
   4.683e-03   0.000e+00   0.000e+00
   2.939e-04   0.000e+00   0.000e+00
   2.186e-02   0.000e+00   0.000e+00
   3.173e-04   0.000e+00   0.000e+00
   4.202e-03   0.000e+00   0.000e+00
  -1.628e-02   0.000e+00   0.000e+00
   2.939e-04   0.000e+00   0.000e+00
   3.954e-05   0.000e+00   0.000e+00
   4.164e-03   0.000e+00   0.000e+00
   9.003e-03   0.000e+00   0.000e+00
  -3.313e-02   0.000e+00   0.000e+00
   2.411e-03   0.000e+00   0.000e+00
  -1.628e-02   0.000e+00   0.000e+00
   2.411e-03   0.000e+00   0.000e+00
   4.202e-03   0.000e+00   0.000e+00
   9.851e-03   0.000e+00   0.000e+00
  -1.628e-02   0.000e+00   0.000e+00
   4.164e-03   0.000e+00   0.000e+00
   9.622e-03   0.000e+00   0.000e+00
   9.003e-03   0.000e+00   0.000e+00
   9.851e-03   0.000e+00   0.000e+00
   1.207e-02   0.000e+00   0.000e+00
   2.411e-03   0.000e+00   0.000e+00
   1.868e-02   0.000e+00   0.000e+00
   9.003e-03   0.000e+00   0.000e+00
   9.622e-03   0.000e+00   0.000e+00
   1.197e-02   0.000e+00   0.000e+00
  -3.313e-02   0.000e+00   0.000e+00
  -1.916e-02   0.000e+00   0.000e+00
   1.114e-02   0.000e+00   0.000e+00
  -1.916e-02   0.000e+00   0.000e+00
   6.744e-03   0.000e+00   0.000e+00
   7.783e-03   0.000e+00   0.000e+00
   4.870e-04   0.000e+00   0.000e+00
   6.492e-03   0.000e+00   0.000e+00
   7.943e-03   0.000e+00   0.000e+00
   6.554e-03   0.000e+00   0.000e+00
   7.903e-03   0.000e+00   0.000e+00
   1.527e-02   0.000e+00   0.000e+00
   6.554e-03   0.000e+00   0.000e+00
   7.783e-03   0.000e+00   0.000e+00
   1.630e-02   0.000e+00   0.000e+00
   4.870e-04   0.000e+00   0.000e+00
   1.527e-02   0.000e+00   0.000e+00
   7.943e-03   0.000e+00   0.000e+00
   1.559e-02   0.000e+00   0.000e+00
   6.554e-03   0.000e+00   0.000e+00
   2.403e-02   0.000e+00   0.000e+00
   4.870e-04   0.000e+00   0.000e+00
   1.630e-02   0.000e+00   0.000e+00
   2.320e-02   0.000e+00   0.000e+00
   1.559e-02   0.000e+00   0.000e+00
   2.346e-02   0.000e+00   0.000e+00
   1.527e-02   0.000e+00   0.000e+00
   7.903e-03   0.000e+00   0.000e+00
   1.556e-02   0.000e+00   0.000e+00
   2.546e-02   0.000e+00   0.000e+00
   1.556e-02   0.000e+00   0.000e+00
   3.012e-02   0.000e+00   0.000e+00
   3.419e-02   0.000e+00   0.000e+00
   3.012e-02   0.000e+00   0.000e+00
   5.266e-02   0.000e+00   0.000e+00
   5.138e-02   0.000e+00   0.000e+00
   5.266e-02   0.000e+00   0.000e+00
   8.623e-02   0.000e+00   0.000e+00
   7.863e-02   0.000e+00   0.000e+00
   8.623e-02   0.000e+00   0.000e+00
   1.360e-01   0.000e+00   0.000e+00
   1.191e-01   0.000e+00   0.000e+00
   1.360e-01   0.000e+00   0.000e+00
   2.076e-01   0.000e+00   0.000e+00
   1.772e-01   0.000e+00   0.000e+00
   2.585e-01   0.000e+00   0.000e+00
   1.768e-01   0.000e+00   0.000e+00
   3.283e-01   0.000e+00   0.000e+00
   1.768e-01   0.000e+00   0.000e+00
   1.183e-01   0.000e+00   0.000e+00
   2.352e-01   0.000e+00   0.000e+00
   1.183e-01   0.000e+00   0.000e+00
   7.759e-02   0.000e+00   0.000e+00
   1.669e-01   0.000e+00   0.000e+00
   7.759e-02   0.000e+00   0.000e+00
   5.011e-02   0.000e+00   0.000e+00
   1.180e-01   0.000e+00   0.000e+00
   5.011e-02   0.000e+00   0.000e+00
   3.223e-02   0.000e+00   0.000e+00
   8.399e-02   0.000e+00   0.000e+00
   3.223e-02   0.000e+00   0.000e+00
   2.186e-02   0.000e+00   0.000e+00
   6.147e-02   0.000e+00   0.000e+00
   2.186e-02   0.000e+00   0.000e+00
   1.868e-02   0.000e+00   0.000e+00
   4.802e-02   0.000e+00   0.000e+00
   1.868e-02   0.000e+00   0.000e+00
   2.091e-02   0.000e+00   0.000e+00
   2.951e-02   0.000e+00   0.000e+00
   1.114e-02   0.000e+00   0.000e+00
   2.793e-02   0.000e+00   0.000e+00
   2.164e-02   0.000e+00   0.000e+00
   2.770e-02   0.000e+00   0.000e+00
   2.177e-02   0.000e+00   0.000e+00
   3.069e-02   0.000e+00   0.000e+00
   2.091e-02   0.000e+00   0.000e+00
   3.069e-02   0.000e+00   0.000e+00
   2.951e-02   0.000e+00   0.000e+00
   2.091e-02   0.000e+00   0.000e+00
   4.240e-02   0.000e+00   0.000e+00
   2.951e-02   0.000e+00   0.000e+00
   3.069e-02   0.000e+00   0.000e+00
   1.114e-02   0.000e+00   0.000e+00
   1.078e-02   0.000e+00   0.000e+00
   3.301e-02   0.000e+00   0.000e+00
   3.325e-02   0.000e+00   0.000e+00
   3.230e-02   0.000e+00   0.000e+00
   3.345e-02   0.000e+00   0.000e+00
   3.394e-02   0.000e+00   0.000e+00
   2.403e-02   0.000e+00   0.000e+00
   3.234e-02   0.000e+00   0.000e+00
   3.704e-02   0.000e+00   0.000e+00
   1.078e-02   0.000e+00   0.000e+00
   3.245e-02   0.000e+00   0.000e+00
   3.498e-02   0.000e+00   0.000e+00
   3.538e-02   0.000e+00   0.000e+00
   3.325e-02   0.000e+00   0.000e+00
   3.704e-02   0.000e+00   0.000e+00
   1.078e-02   0.000e+00   0.000e+00
   3.538e-02   0.000e+00   0.000e+00
   3.394e-02   0.000e+00   0.000e+00
   3.345e-02   0.000e+00   0.000e+00
   3.498e-02   0.000e+00   0.000e+00
   4.312e-02   0.000e+00   0.000e+00
   3.394e-02   0.000e+00   0.000e+00
   3.538e-02   0.000e+00   0.000e+00
   2.403e-02   0.000e+00   0.000e+00
   2.612e-02   0.000e+00   0.000e+00
   2.821e-02   0.000e+00   0.000e+00
   2.614e-02   0.000e+00   0.000e+00
   2.776e-02   0.000e+00   0.000e+00
   2.455e-02   0.000e+00   0.000e+00
   3.453e-02   0.000e+00   0.000e+00
   2.546e-02   0.000e+00   0.000e+00
   3.460e-02   0.000e+00   0.000e+00
   2.455e-02   0.000e+00   0.000e+00
   3.460e-02   0.000e+00   0.000e+00
   3.453e-02   0.000e+00   0.000e+00
   2.455e-02   0.000e+00   0.000e+00
   4.536e-02   0.000e+00   0.000e+00
   3.453e-02   0.000e+00   0.000e+00
   3.460e-02   0.000e+00   0.000e+00
   2.546e-02   0.000e+00   0.000e+00
   3.419e-02   0.000e+00   0.000e+00
   5.045e-02   0.000e+00   0.000e+00
   3.419e-02   0.000e+00   0.000e+00
   5.138e-02   0.000e+00   0.000e+00
   6.304e-02   0.000e+00   0.000e+00
   5.138e-02   0.000e+00   0.000e+00
   7.863e-02   0.000e+00   0.000e+00
   8.503e-02   0.000e+00   0.000e+00
   7.863e-02   0.000e+00   0.000e+00
   1.191e-01   0.000e+00   0.000e+00
   1.187e-01   0.000e+00   0.000e+00
   1.191e-01   0.000e+00   0.000e+00
   1.772e-01   0.000e+00   0.000e+00
   1.674e-01   0.000e+00   0.000e+00
   1.772e-01   0.000e+00   0.000e+00
   2.586e-01   0.000e+00   0.000e+00
   2.355e-01   0.000e+00   0.000e+00
   3.283e-01   0.000e+00   0.000e+00
   2.352e-01   0.000e+00   0.000e+00
   4.214e-01   0.000e+00   0.000e+00
   2.352e-01   0.000e+00   0.000e+00
   1.669e-01   0.000e+00   0.000e+00
   3.150e-01   0.000e+00   0.000e+00
   1.669e-01   0.000e+00   0.000e+00
   1.180e-01   0.000e+00   0.000e+00
   2.352e-01   0.000e+00   0.000e+00
   1.180e-01   0.000e+00   0.000e+00
   8.399e-02   0.000e+00   0.000e+00
   1.766e-01   0.000e+00   0.000e+00
   8.399e-02   0.000e+00   0.000e+00
   6.147e-02   0.000e+00   0.000e+00
   1.348e-01   0.000e+00   0.000e+00
   6.147e-02   0.000e+00   0.000e+00
   4.802e-02   0.000e+00   0.000e+00
   1.062e-01   0.000e+00   0.000e+00
   4.802e-02   0.000e+00   0.000e+00
   4.240e-02   0.000e+00   0.000e+00
   8.816e-02   0.000e+00   0.000e+00
   4.240e-02   0.000e+00   0.000e+00
   4.312e-02   0.000e+00   0.000e+00
   7.876e-02   0.000e+00   0.000e+00
   4.312e-02   0.000e+00   0.000e+00
   4.536e-02   0.000e+00   0.000e+00
   7.636e-02   0.000e+00   0.000e+00
   4.536e-02   0.000e+00   0.000e+00
   5.045e-02   0.000e+00   0.000e+00
   7.968e-02   0.000e+00   0.000e+00
   5.045e-02   0.000e+00   0.000e+00
   6.304e-02   0.000e+00   0.000e+00
   8.921e-02   0.000e+00   0.000e+00
   6.304e-02   0.000e+00   0.000e+00
   8.503e-02   0.000e+00   0.000e+00
   1.070e-01   0.000e+00   0.000e+00
   8.503e-02   0.000e+00   0.000e+00
   1.187e-01   0.000e+00   0.000e+00
   1.353e-01   0.000e+00   0.000e+00
   1.187e-01   0.000e+00   0.000e+00
   1.674e-01   0.000e+00   0.000e+00
   1.770e-01   0.000e+00   0.000e+00
   1.674e-01   0.000e+00   0.000e+00
   2.355e-01   0.000e+00   0.000e+00
   2.354e-01   0.000e+00   0.000e+00
   2.355e-01   0.000e+00   0.000e+00
   3.283e-01   0.000e+00   0.000e+00
   3.152e-01   0.000e+00   0.000e+00
   4.214e-01   0.000e+00   0.000e+00
   3.150e-01   0.000e+00   0.000e+00
   5.430e-01   0.000e+00   0.000e+00
   3.150e-01   0.000e+00   0.000e+00
   2.352e-01   0.000e+00   0.000e+00
   4.214e-01   0.000e+00   0.000e+00
   2.352e-01   0.000e+00   0.000e+00
   1.766e-01   0.000e+00   0.000e+00
   3.283e-01   0.000e+00   0.000e+00
   1.766e-01   0.000e+00   0.000e+00
   1.348e-01   0.000e+00   0.000e+00
   2.585e-01   0.000e+00   0.000e+00
   1.348e-01   0.000e+00   0.000e+00
   1.062e-01   0.000e+00   0.000e+00
   2.076e-01   0.000e+00   0.000e+00
   1.062e-01   0.000e+00   0.000e+00
   8.816e-02   0.000e+00   0.000e+00
   1.718e-01   0.000e+00   0.000e+00
   8.816e-02   0.000e+00   0.000e+00
   7.876e-02   0.000e+00   0.000e+00
   1.483e-01   0.000e+00   0.000e+00
   7.876e-02   0.000e+00   0.000e+00
   7.636e-02   0.000e+00   0.000e+00
   1.351e-01   0.000e+00   0.000e+00
   7.636e-02   0.000e+00   0.000e+00
   7.968e-02   0.000e+00   0.000e+00
   1.308e-01   0.000e+00   0.000e+00
   7.968e-02   0.000e+00   0.000e+00
   8.921e-02   0.000e+00   0.000e+00
   1.351e-01   0.000e+00   0.000e+00
   8.921e-02   0.000e+00   0.000e+00
   1.070e-01   0.000e+00   0.000e+00
   1.484e-01   0.000e+00   0.000e+00
   1.070e-01   0.000e+00   0.000e+00
   1.353e-01   0.000e+00   0.000e+00
   1.719e-01   0.000e+00   0.000e+00
   1.353e-01   0.000e+00   0.000e+00
   1.770e-01   0.000e+00   0.000e+00
   2.076e-01   0.000e+00   0.000e+00
   1.770e-01   0.000e+00   0.000e+00
   2.354e-01   0.000e+00   0.000e+00
   2.586e-01   0.000e+00   0.000e+00
   2.354e-01   0.000e+00   0.000e+00
   3.152e-01   0.000e+00   0.000e+00
   3.283e-01   0.000e+00   0.000e+00
   3.152e-01   0.000e+00   0.000e+00
   4.214e-01   0.000e+00   0.000e+00
   4.214e-01   0.000e+00   0.000e+00
   4.214e-01   0.000e+00   0.000e+00
   3.150e-01   0.000e+00   0.000e+00
   4.214e-01   0.000e+00   0.000e+00
   3.283e-01   0.000e+00   0.000e+00
   2.352e-01   0.000e+00   0.000e+00
   3.150e-01   0.000e+00   0.000e+00
   2.586e-01   0.000e+00   0.000e+00
   1.767e-01   0.000e+00   0.000e+00
   2.352e-01   0.000e+00   0.000e+00
   2.076e-01   0.000e+00   0.000e+00
   1.350e-01   0.000e+00   0.000e+00
   1.767e-01   0.000e+00   0.000e+00
   1.719e-01   0.000e+00   0.000e+00
   1.063e-01   0.000e+00   0.000e+00
   1.350e-01   0.000e+00   0.000e+00
   1.484e-01   0.000e+00   0.000e+00
   8.769e-02   0.000e+00   0.000e+00
   1.063e-01   0.000e+00   0.000e+00
   1.351e-01   0.000e+00   0.000e+00
   7.717e-02   0.000e+00   0.000e+00
   8.769e-02   0.000e+00   0.000e+00
   1.308e-01   0.000e+00   0.000e+00
   7.371e-02   0.000e+00   0.000e+00
   7.717e-02   0.000e+00   0.000e+00
   1.351e-01   0.000e+00   0.000e+00
   7.705e-02   0.000e+00   0.000e+00
   7.371e-02   0.000e+00   0.000e+00
   1.483e-01   0.000e+00   0.000e+00
   8.760e-02   0.000e+00   0.000e+00
   7.705e-02   0.000e+00   0.000e+00
   1.718e-01   0.000e+00   0.000e+00
   1.064e-01   0.000e+00   0.000e+00
   8.760e-02   0.000e+00   0.000e+00
   2.076e-01   0.000e+00   0.000e+00
   1.352e-01   0.000e+00   0.000e+00
   1.064e-01   0.000e+00   0.000e+00
   2.585e-01   0.000e+00   0.000e+00
   1.770e-01   0.000e+00   0.000e+00
   1.352e-01   0.000e+00   0.000e+00
   3.283e-01   0.000e+00   0.000e+00
   2.354e-01   0.000e+00   0.000e+00
   1.770e-01   0.000e+00   0.000e+00
   4.214e-01   0.000e+00   0.000e+00
   3.151e-01   0.000e+00   0.000e+00
   2.354e-01   0.000e+00   0.000e+00
   5.430e-01   0.000e+00   0.000e+00
   4.214e-01   0.000e+00   0.000e+00
   3.151e-01   0.000e+00   0.000e+00
   3.150e-01   0.000e+00   0.000e+00
   2.351e-01   0.000e+00   0.000e+00
   3.283e-01   0.000e+00   0.000e+00
   2.352e-01   0.000e+00   0.000e+00
   1.668e-01   0.000e+00   0.000e+00
   2.351e-01   0.000e+00   0.000e+00
   1.767e-01   0.000e+00   0.000e+00
   1.181e-01   0.000e+00   0.000e+00
   1.668e-01   0.000e+00   0.000e+00
   1.350e-01   0.000e+00   0.000e+00
   8.452e-02   0.000e+00   0.000e+00
   1.181e-01   0.000e+00   0.000e+00
   1.063e-01   0.000e+00   0.000e+00
   6.217e-02   0.000e+00   0.000e+00
   8.452e-02   0.000e+00   0.000e+00
   8.769e-02   0.000e+00   0.000e+00
   4.777e-02   0.000e+00   0.000e+00
   6.217e-02   0.000e+00   0.000e+00
   7.717e-02   0.000e+00   0.000e+00
   3.936e-02   0.000e+00   0.000e+00
   4.777e-02   0.000e+00   0.000e+00
   7.371e-02   0.000e+00   0.000e+00
   3.638e-02   0.000e+00   0.000e+00
   3.936e-02   0.000e+00   0.000e+00
   7.705e-02   0.000e+00   0.000e+00
   3.894e-02   0.000e+00   0.000e+00
   3.638e-02   0.000e+00   0.000e+00
   8.760e-02   0.000e+00   0.000e+00
   4.740e-02   0.000e+00   0.000e+00
   3.894e-02   0.000e+00   0.000e+00
   1.064e-01   0.000e+00   0.000e+00
   6.236e-02   0.000e+00   0.000e+00
   4.740e-02   0.000e+00   0.000e+00
   1.352e-01   0.000e+00   0.000e+00
   8.523e-02   0.000e+00   0.000e+00
   6.236e-02   0.000e+00   0.000e+00
   1.770e-01   0.000e+00   0.000e+00
   1.189e-01   0.000e+00   0.000e+00
   8.523e-02   0.000e+00   0.000e+00
   2.354e-01   0.000e+00   0.000e+00
   1.674e-01   0.000e+00   0.000e+00
   1.189e-01   0.000e+00   0.000e+00
   3.151e-01   0.000e+00   0.000e+00
   2.354e-01   0.000e+00   0.000e+00
   1.674e-01   0.000e+00   0.000e+00
   4.214e-01   0.000e+00   0.000e+00
   3.283e-01   0.000e+00   0.000e+00
   2.354e-01   0.000e+00   0.000e+00
   2.351e-01   0.000e+00   0.000e+00
   1.765e-01   0.000e+00   0.000e+00
   2.586e-01   0.000e+00   0.000e+00
   1.668e-01   0.000e+00   0.000e+00
   1.178e-01   0.000e+00   0.000e+00
   1.765e-01   0.000e+00   0.000e+00
   1.181e-01   0.000e+00   0.000e+00
   7.751e-02   0.000e+00   0.000e+00
   1.178e-01   0.000e+00   0.000e+00
   8.452e-02   0.000e+00   0.000e+00
   5.112e-02   0.000e+00   0.000e+00
   7.751e-02   0.000e+00   0.000e+00
   6.217e-02   0.000e+00   0.000e+00
   3.468e-02   0.000e+00   0.000e+00
   5.112e-02   0.000e+00   0.000e+00
   4.777e-02   0.000e+00   0.000e+00
   2.377e-02   0.000e+00   0.000e+00
   3.468e-02   0.000e+00   0.000e+00
   3.936e-02   0.000e+00   0.000e+00
   1.625e-02   0.000e+00   0.000e+00
   2.377e-02   0.000e+00   0.000e+00
   3.638e-02   0.000e+00   0.000e+00
   1.304e-02   0.000e+00   0.000e+00
   1.625e-02   0.000e+00   0.000e+00
   3.894e-02   0.000e+00   0.000e+00
   1.499e-02   0.000e+00   0.000e+00
   1.304e-02   0.000e+00   0.000e+00
   4.740e-02   0.000e+00   0.000e+00
   2.246e-02   0.000e+00   0.000e+00
   1.499e-02   0.000e+00   0.000e+00
   6.236e-02   0.000e+00   0.000e+00
   3.507e-02   0.000e+00   0.000e+00
   2.246e-02   0.000e+00   0.000e+00
   8.523e-02   0.000e+00   0.000e+00
   5.279e-02   0.000e+00   0.000e+00
   3.507e-02   0.000e+00   0.000e+00
   1.189e-01   0.000e+00   0.000e+00
   7.902e-02   0.000e+00   0.000e+00
   5.279e-02   0.000e+00   0.000e+00
   1.674e-01   0.000e+00   0.000e+00
   1.189e-01   0.000e+00   0.000e+00
   7.902e-02   0.000e+00   0.000e+00
   2.354e-01   0.000e+00   0.000e+00
   1.770e-01   0.000e+00   0.000e+00
   1.189e-01   0.000e+00   0.000e+00
   3.283e-01   0.000e+00   0.000e+00
   2.585e-01   0.000e+00   0.000e+00
   1.770e-01   0.000e+00   0.000e+00
   1.765e-01   0.000e+00   0.000e+00
   1.346e-01   0.000e+00   0.000e+00
   2.076e-01   0.000e+00   0.000e+00
   1.178e-01   0.000e+00   0.000e+00
   8.376e-02   0.000e+00   0.000e+00
   1.346e-01   0.000e+00   0.000e+00
   7.751e-02   0.000e+00   0.000e+00
   5.015e-02   0.000e+00   0.000e+00
   8.376e-02   0.000e+00   0.000e+00
   5.112e-02   0.000e+00   0.000e+00
   2.978e-02   0.000e+00   0.000e+00
   5.015e-02   0.000e+00   0.000e+00
   3.468e-02   0.000e+00   0.000e+00
   2.023e-02   0.000e+00   0.000e+00
   2.978e-02   0.000e+00   0.000e+00
   2.377e-02   0.000e+00   0.000e+00
   1.318e-02   0.000e+00   0.000e+00
   2.023e-02   0.000e+00   0.000e+00
   1.625e-02   0.000e+00   0.000e+00
   2.556e-03   0.000e+00   0.000e+00
   1.318e-02   0.000e+00   0.000e+00
   1.304e-02   0.000e+00   0.000e+00
  -1.914e-03   0.000e+00   0.000e+00
   2.556e-03   0.000e+00   0.000e+00
   1.499e-02   0.000e+00   0.000e+00
  -5.078e-04   0.000e+00   0.000e+00
  -1.914e-03   0.000e+00   0.000e+00
   2.246e-02   0.000e+00   0.000e+00
   7.629e-03   0.000e+00   0.000e+00
  -5.078e-04   0.000e+00   0.000e+00
   3.507e-02   0.000e+00   0.000e+00
   2.301e-02   0.000e+00   0.000e+00
   7.629e-03   0.000e+00   0.000e+00
   5.279e-02   0.000e+00   0.000e+00
   3.373e-02   0.000e+00   0.000e+00
   2.301e-02   0.000e+00   0.000e+00
   7.902e-02   0.000e+00   0.000e+00
   5.255e-02   0.000e+00   0.000e+00
   3.373e-02   0.000e+00   0.000e+00
   1.189e-01   0.000e+00   0.000e+00
   8.517e-02   0.000e+00   0.000e+00
   5.255e-02   0.000e+00   0.000e+00
   1.770e-01   0.000e+00   0.000e+00
   1.352e-01   0.000e+00   0.000e+00
   8.517e-02   0.000e+00   0.000e+00
   2.585e-01   0.000e+00   0.000e+00
   2.076e-01   0.000e+00   0.000e+00
   1.352e-01   0.000e+00   0.000e+00
   1.346e-01   0.000e+00   0.000e+00
   1.057e-01   0.000e+00   0.000e+00
   1.719e-01   0.000e+00   0.000e+00
   8.376e-02   0.000e+00   0.000e+00
   6.080e-02   0.000e+00   0.000e+00
   1.057e-01   0.000e+00   0.000e+00
   5.015e-02   0.000e+00   0.000e+00
   3.199e-02   0.000e+00   0.000e+00
   6.080e-02   0.000e+00   0.000e+00
   2.978e-02   0.000e+00   0.000e+00
   1.527e-02   0.000e+00   0.000e+00
   3.199e-02   0.000e+00   0.000e+00
   2.023e-02   0.000e+00   0.000e+00
   1.545e-02   0.000e+00   0.000e+00
   1.717e-02   0.000e+00   0.000e+00
   8.580e-03   0.000e+00   0.000e+00
   9.483e-03   0.000e+00   0.000e+00
   1.052e-02   0.000e+00   0.000e+00
   8.918e-03   0.000e+00   0.000e+00
   1.059e-02   0.000e+00   0.000e+00
   1.082e-02   0.000e+00   0.000e+00
   1.545e-02   0.000e+00   0.000e+00
   1.082e-02   0.000e+00   0.000e+00
   1.717e-02   0.000e+00   0.000e+00
   1.545e-02   0.000e+00   0.000e+00
   1.527e-02   0.000e+00   0.000e+00
   1.717e-02   0.000e+00   0.000e+00
   1.082e-02   0.000e+00   0.000e+00
   1.360e-02   0.000e+00   0.000e+00
   1.371e-02   0.000e+00   0.000e+00
  -1.029e-02   0.000e+00   0.000e+00
   2.756e-04   0.000e+00   0.000e+00
   1.318e-02   0.000e+00   0.000e+00
   1.289e-02   0.000e+00   0.000e+00
   1.398e-02   0.000e+00   0.000e+00
  -3.093e-02   0.000e+00   0.000e+00
  -1.606e-02   0.000e+00   0.000e+00
  -1.029e-02   0.000e+00   0.000e+00
  -1.606e-02   0.000e+00   0.000e+00
   2.756e-04   0.000e+00   0.000e+00
  -1.029e-02   0.000e+00   0.000e+00
   8.580e-03   0.000e+00   0.000e+00
   2.756e-04   0.000e+00   0.000e+00
  -1.606e-02   0.000e+00   0.000e+00
   2.484e-03   0.000e+00   0.000e+00
  -1.172e-03   0.000e+00   0.000e+00
  -8.865e-03   0.000e+00   0.000e+00
   2.556e-03   0.000e+00   0.000e+00
  -2.809e-03   0.000e+00   0.000e+00
   2.309e-03   0.000e+00   0.000e+00
  -1.111e-03   0.000e+00   0.000e+00
  -2.583e-02   0.000e+00   0.000e+00
  -3.472e-02   0.000e+00   0.000e+00
  -4.352e-03   0.000e+00   0.000e+00
  -2.622e-03   0.000e+00   0.000e+00
  -4.361e-03   0.000e+00   0.000e+00
  -2.907e-03   0.000e+00   0.000e+00
  -2.809e-03   0.000e+00   0.000e+00
  -3.472e-02   0.000e+00   0.000e+00
  -8.865e-03   0.000e+00   0.000e+00
  -1.172e-03   0.000e+00   0.000e+00
  -2.622e-03   0.000e+00   0.000e+00
  -1.111e-03   0.000e+00   0.000e+00
  -2.907e-03   0.000e+00   0.000e+00
  -2.809e-03   0.000e+00   0.000e+00
  -3.093e-02   0.000e+00   0.000e+00
  -8.865e-03   0.000e+00   0.000e+00
  -3.472e-02   0.000e+00   0.000e+00
  -1.914e-03   0.000e+00   0.000e+00
  -7.951e-03   0.000e+00   0.000e+00
  -6.191e-03   0.000e+00   0.000e+00
  -1.382e-02   0.000e+00   0.000e+00
  -1.182e-02   0.000e+00   0.000e+00
  -7.951e-03   0.000e+00   0.000e+00
  -1.182e-02   0.000e+00   0.000e+00
  -6.191e-03   0.000e+00   0.000e+00
  -7.951e-03   0.000e+00   0.000e+00
  -2.583e-02   0.000e+00   0.000e+00
  -7.653e-03   0.000e+00   0.000e+00
  -1.067e-02   0.000e+00   0.000e+00
  -7.689e-03   0.000e+00   0.000e+00
  -1.091e-02   0.000e+00   0.000e+00
  -6.191e-03   0.000e+00   0.000e+00
  -1.182e-02   0.000e+00   0.000e+00
  -5.078e-04   0.000e+00   0.000e+00
  -1.327e-02   0.000e+00   0.000e+00
  -1.382e-02   0.000e+00   0.000e+00
   3.524e-03   0.000e+00   0.000e+00
  -2.520e-04   0.000e+00   0.000e+00
  -4.062e-03   0.000e+00   0.000e+00
   7.629e-03   0.000e+00   0.000e+00
   3.082e-03   0.000e+00   0.000e+00
  -4.775e-04   0.000e+00   0.000e+00
  -3.763e-03   0.000e+00   0.000e+00
  -3.106e-02   0.000e+00   0.000e+00
  -1.965e-02   0.000e+00   0.000e+00
  -4.062e-03   0.000e+00   0.000e+00
  -1.965e-02   0.000e+00   0.000e+00
  -2.520e-04   0.000e+00   0.000e+00
  -7.337e-03   0.000e+00   0.000e+00
  -4.062e-03   0.000e+00   0.000e+00
  -4.775e-04   0.000e+00   0.000e+00
  -7.566e-03   0.000e+00   0.000e+00
  -3.763e-03   0.000e+00   0.000e+00
  -7.337e-03   0.000e+00   0.000e+00
  -1.140e-02   0.000e+00   0.000e+00
  -1.965e-02   0.000e+00   0.000e+00
  -1.327e-02   0.000e+00   0.000e+00
  -3.763e-03   0.000e+00   0.000e+00
  -7.566e-03   0.000e+00   0.000e+00
  -1.167e-02   0.000e+00   0.000e+00
   2.358e-02   0.000e+00   0.000e+00
   2.259e-02   0.000e+00   0.000e+00
   1.111e-03   0.000e+00   0.000e+00
  -7.104e-03   0.000e+00   0.000e+00
   2.301e-02   0.000e+00   0.000e+00
   2.311e-02   0.000e+00   0.000e+00
   2.220e-02   0.000e+00   0.000e+00
  -1.567e-02   0.000e+00   0.000e+00
  -2.909e-02   0.000e+00   0.000e+00
   1.111e-03   0.000e+00   0.000e+00
  -2.909e-02   0.000e+00   0.000e+00
  -7.104e-03   0.000e+00   0.000e+00
   1.111e-03   0.000e+00   0.000e+00
  -3.106e-02   0.000e+00   0.000e+00
  -7.104e-03   0.000e+00   0.000e+00
  -2.909e-02   0.000e+00   0.000e+00
   2.630e-02   0.000e+00   0.000e+00
   2.576e-02   0.000e+00   0.000e+00
   2.011e-02   0.000e+00   0.000e+00
   3.373e-02   0.000e+00   0.000e+00
   2.710e-02   0.000e+00   0.000e+00
   2.596e-02   0.000e+00   0.000e+00
   2.504e-02   0.000e+00   0.000e+00
   1.912e-02   0.000e+00   0.000e+00
   2.070e-02   0.000e+00   0.000e+00
   8.556e-03   0.000e+00   0.000e+00
   2.040e-02   0.000e+00   0.000e+00
   1.891e-02   0.000e+00   0.000e+00
   2.088e-02   0.000e+00   0.000e+00
   2.710e-02   0.000e+00   0.000e+00
   8.556e-03   0.000e+00   0.000e+00
   2.011e-02   0.000e+00   0.000e+00
   2.576e-02   0.000e+00   0.000e+00
   2.070e-02   0.000e+00   0.000e+00
   2.504e-02   0.000e+00   0.000e+00
   2.088e-02   0.000e+00   0.000e+00
   2.710e-02   0.000e+00   0.000e+00
  -1.567e-02   0.000e+00   0.000e+00
   2.011e-02   0.000e+00   0.000e+00
   8.556e-03   0.000e+00   0.000e+00
   5.255e-02   0.000e+00   0.000e+00
   3.474e-02   0.000e+00   0.000e+00
   2.040e-02   0.000e+00   0.000e+00
   8.517e-02   0.000e+00   0.000e+00
   6.239e-02   0.000e+00   0.000e+00
   3.474e-02   0.000e+00   0.000e+00
   1.352e-01   0.000e+00   0.000e+00
   1.065e-01   0.000e+00   0.000e+00
   6.239e-02   0.000e+00   0.000e+00
   2.076e-01   0.000e+00   0.000e+00
   1.718e-01   0.000e+00   0.000e+00
   1.065e-01   0.000e+00   0.000e+00
   1.057e-01   0.000e+00   0.000e+00
   8.713e-02   0.000e+00   0.000e+00
   1.484e-01   0.000e+00   0.000e+00
   6.080e-02   0.000e+00   0.000e+00
   4.630e-02   0.000e+00   0.000e+00
   8.713e-02   0.000e+00   0.000e+00
   3.199e-02   0.000e+00   0.000e+00
   2.043e-02   0.000e+00   0.000e+00
   4.630e-02   0.000e+00   0.000e+00
   1.527e-02   0.000e+00   0.000e+00
   4.849e-03   0.000e+00   0.000e+00
   2.043e-02   0.000e+00   0.000e+00
   8.580e-03   0.000e+00   0.000e+00
   7.709e-03   0.000e+00   0.000e+00
   9.051e-03   0.000e+00   0.000e+00
   7.648e-03   0.000e+00   0.000e+00
   8.750e-03   0.000e+00   0.000e+00
   1.461e-03   0.000e+00   0.000e+00
   4.733e-03   0.000e+00   0.000e+00
  -4.669e-03   0.000e+00   0.000e+00
  -4.118e-04   0.000e+00   0.000e+00
   1.461e-03   0.000e+00   0.000e+00
  -4.118e-04   0.000e+00   0.000e+00
   4.733e-03   0.000e+00   0.000e+00
   1.461e-03   0.000e+00   0.000e+00
   4.849e-03   0.000e+00   0.000e+00
   4.733e-03   0.000e+00   0.000e+00
  -4.118e-04   0.000e+00   0.000e+00
  -3.093e-02   0.000e+00   0.000e+00
  -4.463e-02   0.000e+00   0.000e+00
  -2.380e-02   0.000e+00   0.000e+00
  -5.058e-02   0.000e+00   0.000e+00
  -2.273e-02   0.000e+00   0.000e+00
  -4.463e-02   0.000e+00   0.000e+00
  -2.273e-02   0.000e+00   0.000e+00
  -2.380e-02   0.000e+00   0.000e+00
  -4.463e-02   0.000e+00   0.000e+00
  -3.831e-03   0.000e+00   0.000e+00
  -6.843e-03   0.000e+00   0.000e+00
  -2.380e-02   0.000e+00   0.000e+00
  -2.273e-02   0.000e+00   0.000e+00
  -4.669e-03   0.000e+00   0.000e+00
  -3.899e-03   0.000e+00   0.000e+00
  -6.860e-03   0.000e+00   0.000e+00
  -2.583e-02   0.000e+00   0.000e+00
  -7.565e-02   0.000e+00   0.000e+00
  -5.058e-02   0.000e+00   0.000e+00
  -1.681e-02   0.000e+00   0.000e+00
  -1.855e-02   0.000e+00   0.000e+00
  -3.544e-02   0.000e+00   0.000e+00
  -1.382e-02   0.000e+00   0.000e+00
  -1.993e-02   0.000e+00   0.000e+00
  -1.680e-02   0.000e+00   0.000e+00
  -1.907e-02   0.000e+00   0.000e+00
  -4.145e-02   0.000e+00   0.000e+00
  -6.775e-02   0.000e+00   0.000e+00
  -2.599e-02   0.000e+00   0.000e+00
  -2.119e-02   0.000e+00   0.000e+00
  -2.430e-02   0.000e+00   0.000e+00
  -2.128e-02   0.000e+00   0.000e+00
  -1.993e-02   0.000e+00   0.000e+00
  -6.775e-02   0.000e+00   0.000e+00
  -3.544e-02   0.000e+00   0.000e+00
  -1.855e-02   0.000e+00   0.000e+00
  -2.119e-02   0.000e+00   0.000e+00
  -1.907e-02   0.000e+00   0.000e+00
  -2.128e-02   0.000e+00   0.000e+00
  -1.993e-02   0.000e+00   0.000e+00
  -7.565e-02   0.000e+00   0.000e+00
  -3.544e-02   0.000e+00   0.000e+00
  -6.775e-02   0.000e+00   0.000e+00
  -1.968e-02   0.000e+00   0.000e+00
  -1.917e-02   0.000e+00   0.000e+00
  -2.823e-02   0.000e+00   0.000e+00
  -1.327e-02   0.000e+00   0.000e+00
  -1.778e-02   0.000e+00   0.000e+00
  -1.999e-02   0.000e+00   0.000e+00
  -2.063e-02   0.000e+00   0.000e+00
  -6.046e-02   0.000e+00   0.000e+00
  -3.490e-02   0.000e+00   0.000e+00
  -2.995e-02   0.000e+00   0.000e+00
  -2.823e-02   0.000e+00   0.000e+00
  -2.864e-02   0.000e+00   0.000e+00
  -2.707e-02   0.000e+00   0.000e+00
  -2.862e-02   0.000e+00   0.000e+00
  -1.917e-02   0.000e+00   0.000e+00
  -2.995e-02   0.000e+00   0.000e+00
  -2.823e-02   0.000e+00   0.000e+00
  -2.862e-02   0.000e+00   0.000e+00
  -2.063e-02   0.000e+00   0.000e+00
  -1.999e-02   0.000e+00   0.000e+00
  -2.707e-02   0.000e+00   0.000e+00
  -4.145e-02   0.000e+00   0.000e+00
  -2.621e-02   0.000e+00   0.000e+00
  -3.341e-02   0.000e+00   0.000e+00
  -2.536e-02   0.000e+00   0.000e+00
  -2.851e-02   0.000e+00   0.000e+00
  -2.063e-02   0.000e+00   0.000e+00
  -2.862e-02   0.000e+00   0.000e+00
  -3.106e-02   0.000e+00   0.000e+00
  -6.881e-02   0.000e+00   0.000e+00
  -6.046e-02   0.000e+00   0.000e+00
  -1.567e-02   0.000e+00   0.000e+00
  -2.500e-02   0.000e+00   0.000e+00
  -6.881e-02   0.000e+00   0.000e+00
   1.180e-02   0.000e+00   0.000e+00
   1.085e-02   0.000e+00   0.000e+00
   5.084e-03   0.000e+00   0.000e+00
   2.040e-02   0.000e+00   0.000e+00
   1.369e-02   0.000e+00   0.000e+00
   1.189e-02   0.000e+00   0.000e+00
   1.035e-02   0.000e+00   0.000e+00
   7.955e-03   0.000e+00   0.000e+00
   2.903e-03   0.000e+00   0.000e+00
   1.369e-02   0.000e+00   0.000e+00
   1.085e-02   0.000e+00   0.000e+00
   6.437e-03   0.000e+00   0.000e+00
   5.084e-03   0.000e+00   0.000e+00
   2.903e-03   0.000e+00   0.000e+00
   1.035e-02   0.000e+00   0.000e+00
   6.557e-03   0.000e+00   0.000e+00
   1.369e-02   0.000e+00   0.000e+00
  -2.500e-02   0.000e+00   0.000e+00
   5.084e-03   0.000e+00   0.000e+00
   6.437e-03   0.000e+00   0.000e+00
   2.480e-03   0.000e+00   0.000e+00
   6.557e-03   0.000e+00   0.000e+00
   1.916e-03   0.000e+00   0.000e+00
   2.903e-03   0.000e+00   0.000e+00
   3.474e-02   0.000e+00   0.000e+00
   2.270e-02   0.000e+00   0.000e+00
   7.955e-03   0.000e+00   0.000e+00
   6.239e-02   0.000e+00   0.000e+00
   4.781e-02   0.000e+00   0.000e+00
   2.270e-02   0.000e+00   0.000e+00
   1.065e-01   0.000e+00   0.000e+00
   8.789e-02   0.000e+00   0.000e+00
   4.781e-02   0.000e+00   0.000e+00
   1.718e-01   0.000e+00   0.000e+00
   1.483e-01   0.000e+00   0.000e+00
   8.789e-02   0.000e+00   0.000e+00
   8.713e-02   0.000e+00   0.000e+00
   7.692e-02   0.000e+00   0.000e+00
   1.351e-01   0.000e+00   0.000e+00
   4.630e-02   0.000e+00   0.000e+00
   3.862e-02   0.000e+00   0.000e+00
   7.692e-02   0.000e+00   0.000e+00
   2.043e-02   0.000e+00   0.000e+00
   1.441e-02   0.000e+00   0.000e+00
   3.862e-02   0.000e+00   0.000e+00
   4.849e-03   0.000e+00   0.000e+00
  -1.058e-03   0.000e+00   0.000e+00
   1.441e-02   0.000e+00   0.000e+00
  -4.669e-03   0.000e+00   0.000e+00
  -1.245e-02   0.000e+00   0.000e+00
  -1.058e-03   0.000e+00   0.000e+00
  -5.058e-02   0.000e+00   0.000e+00
  -4.763e-02   0.000e+00   0.000e+00
  -1.402e-02   0.000e+00   0.000e+00
  -1.430e-02   0.000e+00   0.000e+00
  -1.399e-02   0.000e+00   0.000e+00
  -1.436e-02   0.000e+00   0.000e+00
  -1.398e-02   0.000e+00   0.000e+00
  -3.411e-02   0.000e+00   0.000e+00
  -2.314e-02   0.000e+00   0.000e+00
  -1.831e-02   0.000e+00   0.000e+00
  -4.763e-02   0.000e+00   0.000e+00
  -2.212e-02   0.000e+00   0.000e+00
  -1.859e-02   0.000e+00   0.000e+00
  -1.784e-02   0.000e+00   0.000e+00
  -1.430e-02   0.000e+00   0.000e+00
  -1.831e-02   0.000e+00   0.000e+00
  -4.763e-02   0.000e+00   0.000e+00
  -1.784e-02   0.000e+00   0.000e+00
  -1.398e-02   0.000e+00   0.000e+00
  -1.436e-02   0.000e+00   0.000e+00
  -1.859e-02   0.000e+00   0.000e+00
  -1.245e-02   0.000e+00   0.000e+00
  -1.398e-02   0.000e+00   0.000e+00
  -1.784e-02   0.000e+00   0.000e+00
  -7.565e-02   0.000e+00   0.000e+00
  -1.090e-01   0.000e+00   0.000e+00
  -3.411e-02   0.000e+00   0.000e+00
  -4.145e-02   0.000e+00   0.000e+00
  -1.302e-01   0.000e+00   0.000e+00
  -1.090e-01   0.000e+00   0.000e+00
  -6.046e-02   0.000e+00   0.000e+00
  -1.244e-01   0.000e+00   0.000e+00
  -1.302e-01   0.000e+00   0.000e+00
  -6.881e-02   0.000e+00   0.000e+00
  -8.314e-02   0.000e+00   0.000e+00
  -1.244e-01   0.000e+00   0.000e+00
  -2.500e-02   0.000e+00   0.000e+00
  -1.574e-02   0.000e+00   0.000e+00
  -5.189e-02   0.000e+00   0.000e+00
  -1.365e-02   0.000e+00   0.000e+00
  -8.054e-03   0.000e+00   0.000e+00
  -4.173e-02   0.000e+00   0.000e+00
  -1.574e-02   0.000e+00   0.000e+00
  -1.196e-02   0.000e+00   0.000e+00
  -1.459e-02   0.000e+00   0.000e+00
  -9.104e-03   0.000e+00   0.000e+00
  -4.173e-02   0.000e+00   0.000e+00
  -5.189e-02   0.000e+00   0.000e+00
  -1.574e-02   0.000e+00   0.000e+00
  -8.314e-02   0.000e+00   0.000e+00
  -5.189e-02   0.000e+00   0.000e+00
  -4.173e-02   0.000e+00   0.000e+00
   7.955e-03   0.000e+00   0.000e+00
   2.289e-04   0.000e+00   0.000e+00
  -1.196e-02   0.000e+00   0.000e+00
   2.270e-02   0.000e+00   0.000e+00
   1.605e-02   0.000e+00   0.000e+00
   2.289e-04   0.000e+00   0.000e+00
   4.781e-02   0.000e+00   0.000e+00
   4.005e-02   0.000e+00   0.000e+00
   1.605e-02   0.000e+00   0.000e+00
   8.789e-02   0.000e+00   0.000e+00
   7.772e-02   0.000e+00   0.000e+00
   4.005e-02   0.000e+00   0.000e+00
   1.483e-01   0.000e+00   0.000e+00
   1.351e-01   0.000e+00   0.000e+00
   7.772e-02   0.000e+00   0.000e+00
   7.692e-02   0.000e+00   0.000e+00
   7.396e-02   0.000e+00   0.000e+00
   1.308e-01   0.000e+00   0.000e+00
   3.862e-02   0.000e+00   0.000e+00
   3.695e-02   0.000e+00   0.000e+00
   7.396e-02   0.000e+00   0.000e+00
   1.441e-02   0.000e+00   0.000e+00
   1.385e-02   0.000e+00   0.000e+00
   3.695e-02   0.000e+00   0.000e+00
  -1.058e-03   0.000e+00   0.000e+00
  -1.660e-03   0.000e+00   0.000e+00
   1.385e-02   0.000e+00   0.000e+00
  -1.245e-02   0.000e+00   0.000e+00
  -1.506e-02   0.000e+00   0.000e+00
  -1.660e-03   0.000e+00   0.000e+00
  -3.411e-02   0.000e+00   0.000e+00
  -2.367e-02   0.000e+00   0.000e+00
  -2.347e-02   0.000e+00   0.000e+00
  -2.505e-02   0.000e+00   0.000e+00
  -2.312e-02   0.000e+00   0.000e+00
  -2.719e-02   0.000e+00   0.000e+00
  -2.039e-02   0.000e+00   0.000e+00
  -5.064e-02   0.000e+00   0.000e+00
  -2.383e-02   0.000e+00   0.000e+00
  -2.976e-02   0.000e+00   0.000e+00
  -2.209e-02   0.000e+00   0.000e+00
  -2.810e-02   0.000e+00   0.000e+00
  -2.184e-02   0.000e+00   0.000e+00
  -2.719e-02   0.000e+00   0.000e+00
  -2.383e-02   0.000e+00   0.000e+00
  -2.209e-02   0.000e+00   0.000e+00
  -2.242e-02   0.000e+00   0.000e+00
  -2.184e-02   0.000e+00   0.000e+00
  -2.143e-02   0.000e+00   0.000e+00
  -2.039e-02   0.000e+00   0.000e+00
  -2.719e-02   0.000e+00   0.000e+00
  -2.242e-02   0.000e+00   0.000e+00
  -2.202e-02   0.000e+00   0.000e+00
  -2.383e-02   0.000e+00   0.000e+00
  -1.506e-02   0.000e+00   0.000e+00
  -2.039e-02   0.000e+00   0.000e+00
  -2.143e-02   0.000e+00   0.000e+00
  -2.093e-02   0.000e+00   0.000e+00
  -1.090e-01   0.000e+00   0.000e+00
  -1.279e-01   0.000e+00   0.000e+00
  -5.064e-02   0.000e+00   0.000e+00
  -1.302e-01   0.000e+00   0.000e+00
  -1.596e-01   0.000e+00   0.000e+00
  -1.279e-01   0.000e+00   0.000e+00
  -1.244e-01   0.000e+00   0.000e+00
  -1.518e-01   0.000e+00   0.000e+00
  -1.596e-01   0.000e+00   0.000e+00
  -8.314e-02   0.000e+00   0.000e+00
  -1.020e-01   0.000e+00   0.000e+00
  -1.518e-01   0.000e+00   0.000e+00
  -1.196e-02   0.000e+00   0.000e+00
  -1.538e-02   0.000e+00   0.000e+00
  -2.295e-02   0.000e+00   0.000e+00
  -2.383e-02   0.000e+00   0.000e+00
  -5.644e-02   0.000e+00   0.000e+00
  -1.520e-02   0.000e+00   0.000e+00
  -2.484e-02   0.000e+00   0.000e+00
  -1.682e-02   0.000e+00   0.000e+00
  -2.130e-02   0.000e+00   0.000e+00
  -1.538e-02   0.000e+00   0.000e+00
  -5.644e-02   0.000e+00   0.000e+00
  -2.484e-02   0.000e+00   0.000e+00
  -2.810e-02   0.000e+00   0.000e+00
  -2.130e-02   0.000e+00   0.000e+00
  -2.336e-02   0.000e+00   0.000e+00
  -2.295e-02   0.000e+00   0.000e+00
  -1.538e-02   0.000e+00   0.000e+00
  -1.020e-01   0.000e+00   0.000e+00
  -2.810e-02   0.000e+00   0.000e+00
  -3.132e-02   0.000e+00   0.000e+00
  -5.644e-02   0.000e+00   0.000e+00
  -2.336e-02   0.000e+00   0.000e+00
  -2.381e-02   0.000e+00   0.000e+00
  -2.295e-02   0.000e+00   0.000e+00
   2.289e-04   0.000e+00   0.000e+00
  -1.539e-03   0.000e+00   0.000e+00
  -8.575e-03   0.000e+00   0.000e+00
  -1.697e-03   0.000e+00   0.000e+00
  -9.460e-03   0.000e+00   0.000e+00
  -1.539e-03   0.000e+00   0.000e+00
  -9.460e-03   0.000e+00   0.000e+00
  -8.575e-03   0.000e+00   0.000e+00
  -1.539e-03   0.000e+00   0.000e+00
  -2.383e-02   0.000e+00   0.000e+00
  -1.629e-02   0.000e+00   0.000e+00
  -1.446e-02   0.000e+00   0.000e+00
  -1.612e-02   0.000e+00   0.000e+00
  -1.409e-02   0.000e+00   0.000e+00
  -8.575e-03   0.000e+00   0.000e+00
  -9.460e-03   0.000e+00   0.000e+00
   1.605e-02   0.000e+00   0.000e+00
   1.546e-02   0.000e+00   0.000e+00
  -1.697e-03   0.000e+00   0.000e+00
   4.005e-02   0.000e+00   0.000e+00
   3.875e-02   0.000e+00   0.000e+00
   1.546e-02   0.000e+00   0.000e+00
   7.772e-02   0.000e+00   0.000e+00
   7.497e-02   0.000e+00   0.000e+00
   3.875e-02   0.000e+00   0.000e+00
   1.351e-01   0.000e+00   0.000e+00
   1.308e-01   0.000e+00   0.000e+00
   7.497e-02   0.000e+00   0.000e+00
   7.396e-02   0.000e+00   0.000e+00
   7.774e-02   0.000e+00   0.000e+00
   1.351e-01   0.000e+00   0.000e+00
   3.695e-02   0.000e+00   0.000e+00
   4.077e-02   0.000e+00   0.000e+00
   7.774e-02   0.000e+00   0.000e+00
   1.385e-02   0.000e+00   0.000e+00
   1.915e-02   0.000e+00   0.000e+00
   4.077e-02   0.000e+00   0.000e+00
  -1.660e-03   0.000e+00   0.000e+00
   6.926e-04   0.000e+00   0.000e+00
   7.788e-03   0.000e+00   0.000e+00
  -5.070e-03   0.000e+00   0.000e+00
   9.541e-03   0.000e+00   0.000e+00
   3.070e-03   0.000e+00   0.000e+00
   9.012e-03   0.000e+00   0.000e+00
   2.752e-03   0.000e+00   0.000e+00
   1.199e-02   0.000e+00   0.000e+00
   6.926e-04   0.000e+00   0.000e+00
   1.199e-02   0.000e+00   0.000e+00
   7.788e-03   0.000e+00   0.000e+00
   6.926e-04   0.000e+00   0.000e+00
   1.915e-02   0.000e+00   0.000e+00
   7.788e-03   0.000e+00   0.000e+00
   1.199e-02   0.000e+00   0.000e+00
  -1.462e-02   0.000e+00   0.000e+00
  -1.014e-02   0.000e+00   0.000e+00
  -3.432e-02   0.000e+00   0.000e+00
  -1.179e-02   0.000e+00   0.000e+00
  -1.506e-02   0.000e+00   0.000e+00
  -1.496e-02   0.000e+00   0.000e+00
  -1.003e-02   0.000e+00   0.000e+00
  -4.924e-02   0.000e+00   0.000e+00
  -2.878e-02   0.000e+00   0.000e+00
  -3.432e-02   0.000e+00   0.000e+00
  -2.878e-02   0.000e+00   0.000e+00
  -1.179e-02   0.000e+00   0.000e+00
  -3.432e-02   0.000e+00   0.000e+00
  -5.070e-03   0.000e+00   0.000e+00
  -1.179e-02   0.000e+00   0.000e+00
  -2.878e-02   0.000e+00   0.000e+00
  -5.064e-02   0.000e+00   0.000e+00
  -8.696e-02   0.000e+00   0.000e+00
  -4.924e-02   0.000e+00   0.000e+00
  -1.279e-01   0.000e+00   0.000e+00
  -1.256e-01   0.000e+00   0.000e+00
  -8.696e-02   0.000e+00   0.000e+00
  -1.596e-01   0.000e+00   0.000e+00
  -1.519e-01   0.000e+00   0.000e+00
  -1.256e-01   0.000e+00   0.000e+00
  -1.518e-01   0.000e+00   0.000e+00
  -1.449e-01   0.000e+00   0.000e+00
  -1.519e-01   0.000e+00   0.000e+00
  -1.020e-01   0.000e+00   0.000e+00
  -1.089e-01   0.000e+00   0.000e+00
  -1.449e-01   0.000e+00   0.000e+00
  -2.383e-02   0.000e+00   0.000e+00
  -6.710e-02   0.000e+00   0.000e+00
  -1.089e-01   0.000e+00   0.000e+00
  -6.483e-04   0.000e+00   0.000e+00
  -4.954e-03   0.000e+00   0.000e+00
  -1.037e-02   0.000e+00   0.000e+00
  -3.352e-02   0.000e+00   0.000e+00
  -1.697e-03   0.000e+00   0.000e+00
  -8.208e-04   0.000e+00   0.000e+00
  -4.879e-03   0.000e+00   0.000e+00
  -2.619e-02   0.000e+00   0.000e+00
  -4.740e-02   0.000e+00   0.000e+00
  -1.037e-02   0.000e+00   0.000e+00
  -4.740e-02   0.000e+00   0.000e+00
  -3.352e-02   0.000e+00   0.000e+00
  -1.037e-02   0.000e+00   0.000e+00
  -6.710e-02   0.000e+00   0.000e+00
  -3.352e-02   0.000e+00   0.000e+00
  -4.740e-02   0.000e+00   0.000e+00
   1.546e-02   0.000e+00   0.000e+00
   1.803e-02   0.000e+00   0.000e+00
   8.764e-03   0.000e+00   0.000e+00
   2.249e-02   0.000e+00   0.000e+00
   1.561e-02   0.000e+00   0.000e+00
  -2.341e-03   0.000e+00   0.000e+00
   2.308e-02   0.000e+00   0.000e+00
   2.193e-02   0.000e+00   0.000e+00
   1.535e-02   0.000e+00   0.000e+00
   1.803e-02   0.000e+00   0.000e+00
  -2.341e-03   0.000e+00   0.000e+00
   1.561e-02   0.000e+00   0.000e+00
   9.725e-03   0.000e+00   0.000e+00
   1.535e-02   0.000e+00   0.000e+00
   9.717e-03   0.000e+00   0.000e+00
   8.764e-03   0.000e+00   0.000e+00
   1.803e-02   0.000e+00   0.000e+00
  -2.619e-02   0.000e+00   0.000e+00
   9.725e-03   0.000e+00   0.000e+00
   8.200e-03   0.000e+00   0.000e+00
  -2.341e-03   0.000e+00   0.000e+00
   9.717e-03   0.000e+00   0.000e+00
   8.016e-03   0.000e+00   0.000e+00
   8.764e-03   0.000e+00   0.000e+00
   3.875e-02   0.000e+00   0.000e+00
   4.366e-02   0.000e+00   0.000e+00
   2.308e-02   0.000e+00   0.000e+00
   7.497e-02   0.000e+00   0.000e+00
   7.909e-02   0.000e+00   0.000e+00
   4.366e-02   0.000e+00   0.000e+00
   1.308e-01   0.000e+00   0.000e+00
   1.351e-01   0.000e+00   0.000e+00
   7.909e-02   0.000e+00   0.000e+00
   7.774e-02   0.000e+00   0.000e+00
   8.834e-02   0.000e+00   0.000e+00
   1.483e-01   0.000e+00   0.000e+00
   4.077e-02   0.000e+00   0.000e+00
   4.934e-02   0.000e+00   0.000e+00
   8.834e-02   0.000e+00   0.000e+00
   1.915e-02   0.000e+00   0.000e+00
   2.758e-02   0.000e+00   0.000e+00
   4.934e-02   0.000e+00   0.000e+00
  -5.070e-03   0.000e+00   0.000e+00
  -9.512e-03   0.000e+00   0.000e+00
   1.576e-02   0.000e+00   0.000e+00
  -6.929e-04   0.000e+00   0.000e+00
   2.213e-02   0.000e+00   0.000e+00
  -9.512e-03   0.000e+00   0.000e+00
   2.213e-02   0.000e+00   0.000e+00
   1.576e-02   0.000e+00   0.000e+00
  -9.512e-03   0.000e+00   0.000e+00
   1.980e-02   0.000e+00   0.000e+00
   2.441e-02   0.000e+00   0.000e+00
   1.576e-02   0.000e+00   0.000e+00
   2.213e-02   0.000e+00   0.000e+00
   2.758e-02   0.000e+00   0.000e+00
   1.985e-02   0.000e+00   0.000e+00
   2.367e-02   0.000e+00   0.000e+00
  -4.924e-02   0.000e+00   0.000e+00
  -3.083e-02   0.000e+00   0.000e+00
  -6.929e-04   0.000e+00   0.000e+00
  -8.696e-02   0.000e+00   0.000e+00
  -4.140e-02   0.000e+00   0.000e+00
  -3.083e-02   0.000e+00   0.000e+00
  -1.256e-01   0.000e+00   0.000e+00
  -5.038e-02   0.000e+00   0.000e+00
  -4.140e-02   0.000e+00   0.000e+00
  -1.519e-01   0.000e+00   0.000e+00
  -1.123e-01   0.000e+00   0.000e+00
  -5.038e-02   0.000e+00   0.000e+00
  -1.449e-01   0.000e+00   0.000e+00
  -9.922e-02   0.000e+00   0.000e+00
  -1.123e-01   0.000e+00   0.000e+00
  -1.089e-01   0.000e+00   0.000e+00
  -3.624e-02   0.000e+00   0.000e+00
  -9.922e-02   0.000e+00   0.000e+00
  -6.710e-02   0.000e+00   0.000e+00
  -3.356e-02   0.000e+00   0.000e+00
  -3.624e-02   0.000e+00   0.000e+00
  -2.619e-02   0.000e+00   0.000e+00
  -1.327e-02   0.000e+00   0.000e+00
  -3.356e-02   0.000e+00   0.000e+00
   2.452e-02   0.000e+00   0.000e+00
   2.364e-02   0.000e+00   0.000e+00
   2.078e-02   0.000e+00   0.000e+00
  -5.569e-03   0.000e+00   0.000e+00
   2.308e-02   0.000e+00   0.000e+00
   2.439e-02   0.000e+00   0.000e+00
   2.302e-02   0.000e+00   0.000e+00
   2.843e-02   0.000e+00   0.000e+00
   4.740e-03   0.000e+00   0.000e+00
   2.078e-02   0.000e+00   0.000e+00
   4.740e-03   0.000e+00   0.000e+00
  -5.569e-03   0.000e+00   0.000e+00
   2.078e-02   0.000e+00   0.000e+00
  -1.327e-02   0.000e+00   0.000e+00
  -5.569e-03   0.000e+00   0.000e+00
   4.740e-03   0.000e+00   0.000e+00
   4.366e-02   0.000e+00   0.000e+00
   4.804e-02   0.000e+00   0.000e+00
   3.745e-02   0.000e+00   0.000e+00
   5.282e-02   0.000e+00   0.000e+00
   4.212e-02   0.000e+00   0.000e+00
   4.804e-02   0.000e+00   0.000e+00
   4.212e-02   0.000e+00   0.000e+00
   3.745e-02   0.000e+00   0.000e+00
   4.804e-02   0.000e+00   0.000e+00
   2.843e-02   0.000e+00   0.000e+00
   3.626e-02   0.000e+00   0.000e+00
   3.874e-02   0.000e+00   0.000e+00
   3.622e-02   0.000e+00   0.000e+00
   3.810e-02   0.000e+00   0.000e+00
   3.745e-02   0.000e+00   0.000e+00
   4.212e-02   0.000e+00   0.000e+00
   7.909e-02   0.000e+00   0.000e+00
   8.979e-02   0.000e+00   0.000e+00
   5.282e-02   0.000e+00   0.000e+00
   1.351e-01   0.000e+00   0.000e+00
   1.484e-01   0.000e+00   0.000e+00
   8.979e-02   0.000e+00   0.000e+00
   8.834e-02   0.000e+00   0.000e+00
   1.068e-01   0.000e+00   0.000e+00
   1.718e-01   0.000e+00   0.000e+00
   4.934e-02   0.000e+00   0.000e+00
   6.315e-02   0.000e+00   0.000e+00
   1.068e-01   0.000e+00   0.000e+00
   2.758e-02   0.000e+00   0.000e+00
   3.584e-02   0.000e+00   0.000e+00
   6.315e-02   0.000e+00   0.000e+00
  -6.929e-04   0.000e+00   0.000e+00
   1.809e-02   0.000e+00   0.000e+00
   2.228e-02   0.000e+00   0.000e+00
   1.800e-02   0.000e+00   0.000e+00
   2.180e-02   0.000e+00   0.000e+00
   1.781e-02   0.000e+00   0.000e+00
   2.410e-02   0.000e+00   0.000e+00
   1.851e-02   0.000e+00   0.000e+00
   2.649e-02   0.000e+00   0.000e+00
   1.781e-02   0.000e+00   0.000e+00
   2.649e-02   0.000e+00   0.000e+00
   2.410e-02   0.000e+00   0.000e+00
   1.781e-02   0.000e+00   0.000e+00
   3.584e-02   0.000e+00   0.000e+00
   2.410e-02   0.000e+00   0.000e+00
   2.649e-02   0.000e+00   0.000e+00
  -3.083e-02   0.000e+00   0.000e+00
  -4.207e-04   0.000e+00   0.000e+00
   7.457e-03   0.000e+00   0.000e+00
   2.539e-03   0.000e+00   0.000e+00
   2.996e-03   0.000e+00   0.000e+00
  -4.207e-04   0.000e+00   0.000e+00
   4.495e-03   0.000e+00   0.000e+00
   1.118e-02   0.000e+00   0.000e+00
   2.362e-03   0.000e+00   0.000e+00
   2.934e-03   0.000e+00   0.000e+00
   2.996e-03   0.000e+00   0.000e+00
   1.024e-02   0.000e+00   0.000e+00
   7.457e-03   0.000e+00   0.000e+00
  -4.207e-04   0.000e+00   0.000e+00
   1.118e-02   0.000e+00   0.000e+00
   2.934e-03   0.000e+00   0.000e+00
   9.798e-03   0.000e+00   0.000e+00
   1.024e-02   0.000e+00   0.000e+00
   1.058e-02   0.000e+00   0.000e+00
   7.457e-03   0.000e+00   0.000e+00
   1.851e-02   0.000e+00   0.000e+00
   9.798e-03   0.000e+00   0.000e+00
   1.035e-02   0.000e+00   0.000e+00
   1.118e-02   0.000e+00   0.000e+00
  -4.140e-02   0.000e+00   0.000e+00
  -1.333e-02   0.000e+00   0.000e+00
  -5.555e-03   0.000e+00   0.000e+00
  -1.193e-02   0.000e+00   0.000e+00
  -5.596e-03   0.000e+00   0.000e+00
  -1.079e-02   0.000e+00   0.000e+00
  -4.803e-03   0.000e+00   0.000e+00
  -6.598e-03   0.000e+00   0.000e+00
  -1.526e-03   0.000e+00   0.000e+00
  -1.079e-02   0.000e+00   0.000e+00
  -1.526e-03   0.000e+00   0.000e+00
  -4.803e-03   0.000e+00   0.000e+00
  -1.079e-02   0.000e+00   0.000e+00
   4.495e-03   0.000e+00   0.000e+00
  -4.803e-03   0.000e+00   0.000e+00
  -1.526e-03   0.000e+00   0.000e+00
  -5.038e-02   0.000e+00   0.000e+00
  -2.772e-02   0.000e+00   0.000e+00
  -2.743e-02   0.000e+00   0.000e+00
  -2.437e-02   0.000e+00   0.000e+00
  -2.426e-02   0.000e+00   0.000e+00
  -2.077e-02   0.000e+00   0.000e+00
  -1.610e-02   0.000e+00   0.000e+00
  -1.443e-02   0.000e+00   0.000e+00
  -1.093e-02   0.000e+00   0.000e+00
  -2.077e-02   0.000e+00   0.000e+00
  -1.093e-02   0.000e+00   0.000e+00
  -1.610e-02   0.000e+00   0.000e+00
  -2.077e-02   0.000e+00   0.000e+00
  -6.598e-03   0.000e+00   0.000e+00
  -1.610e-02   0.000e+00   0.000e+00
  -1.093e-02   0.000e+00   0.000e+00
  -1.123e-01   0.000e+00   0.000e+00
  -8.834e-02   0.000e+00   0.000e+00
  -6.277e-02   0.000e+00   0.000e+00
  -6.876e-02   0.000e+00   0.000e+00
  -4.611e-02   0.000e+00   0.000e+00
  -8.834e-02   0.000e+00   0.000e+00
  -4.611e-02   0.000e+00   0.000e+00
  -6.277e-02   0.000e+00   0.000e+00
  -8.834e-02   0.000e+00   0.000e+00
  -1.708e-02   0.000e+00   0.000e+00
  -1.379e-02   0.000e+00   0.000e+00
  -6.277e-02   0.000e+00   0.000e+00
  -4.611e-02   0.000e+00   0.000e+00
  -1.443e-02   0.000e+00   0.000e+00
  -1.713e-02   0.000e+00   0.000e+00
  -1.520e-02   0.000e+00   0.000e+00
  -9.922e-02   0.000e+00   0.000e+00
  -5.434e-02   0.000e+00   0.000e+00
  -6.876e-02   0.000e+00   0.000e+00
  -3.624e-02   0.000e+00   0.000e+00
  -1.736e-02   0.000e+00   0.000e+00
  -2.068e-02   0.000e+00   0.000e+00
  -2.390e-02   0.000e+00   0.000e+00
  -1.516e-02   0.000e+00   0.000e+00
  -1.526e-02   0.000e+00   0.000e+00
  -1.146e-02   0.000e+00   0.000e+00
  -9.451e-03   0.000e+00   0.000e+00
  -8.208e-03   0.000e+00   0.000e+00
  -1.227e-02   0.000e+00   0.000e+00
  -5.581e-03   0.000e+00   0.000e+00
  -7.854e-03   0.000e+00   0.000e+00
  -8.430e-03   0.000e+00   0.000e+00
  -1.146e-02   0.000e+00   0.000e+00
  -1.227e-02   0.000e+00   0.000e+00
  -2.390e-02   0.000e+00   0.000e+00
  -2.068e-02   0.000e+00   0.000e+00
  -8.208e-03   0.000e+00   0.000e+00
  -1.526e-02   0.000e+00   0.000e+00
  -8.430e-03   0.000e+00   0.000e+00
  -1.146e-02   0.000e+00   0.000e+00
  -5.434e-02   0.000e+00   0.000e+00
  -2.390e-02   0.000e+00   0.000e+00
  -1.227e-02   0.000e+00   0.000e+00
  -3.356e-02   0.000e+00   0.000e+00
  -1.145e-03   0.000e+00   0.000e+00
  -8.326e-03   0.000e+00   0.000e+00
  -1.166e-03   0.000e+00   0.000e+00
  -6.341e-03   0.000e+00   0.000e+00
  -6.474e-04   0.000e+00   0.000e+00
  -6.725e-03   0.000e+00   0.000e+00
   3.678e-03   0.000e+00   0.000e+00
  -1.668e-03   0.000e+00   0.000e+00
  -6.474e-04   0.000e+00   0.000e+00
  -1.668e-03   0.000e+00   0.000e+00
  -6.725e-03   0.000e+00   0.000e+00
  -6.474e-04   0.000e+00   0.000e+00
  -5.581e-03   0.000e+00   0.000e+00
  -6.725e-03   0.000e+00   0.000e+00
  -1.668e-03   0.000e+00   0.000e+00
  -1.327e-02   0.000e+00   0.000e+00
   1.315e-02   0.000e+00   0.000e+00
   5.534e-03   0.000e+00   0.000e+00
   1.645e-02   0.000e+00   0.000e+00
   1.544e-02   0.000e+00   0.000e+00
   1.315e-02   0.000e+00   0.000e+00
   1.854e-02   0.000e+00   0.000e+00
   1.041e-02   0.000e+00   0.000e+00
   1.629e-02   0.000e+00   0.000e+00
   1.536e-02   0.000e+00   0.000e+00
   1.544e-02   0.000e+00   0.000e+00
   7.367e-03   0.000e+00   0.000e+00
   5.534e-03   0.000e+00   0.000e+00
   1.315e-02   0.000e+00   0.000e+00
   1.041e-02   0.000e+00   0.000e+00
   1.536e-02   0.000e+00   0.000e+00
   7.161e-03   0.000e+00   0.000e+00
   7.367e-03   0.000e+00   0.000e+00
   6.905e-03   0.000e+00   0.000e+00
   5.534e-03   0.000e+00   0.000e+00
   3.678e-03   0.000e+00   0.000e+00
   7.161e-03   0.000e+00   0.000e+00
   6.802e-03   0.000e+00   0.000e+00
   1.041e-02   0.000e+00   0.000e+00
   2.843e-02   0.000e+00   0.000e+00
   3.602e-02   0.000e+00   0.000e+00
   2.721e-02   0.000e+00   0.000e+00
   3.572e-02   0.000e+00   0.000e+00
   2.666e-02   0.000e+00   0.000e+00
   3.576e-02   0.000e+00   0.000e+00
   2.612e-02   0.000e+00   0.000e+00
   3.825e-02   0.000e+00   0.000e+00
   2.795e-02   0.000e+00   0.000e+00
   3.576e-02   0.000e+00   0.000e+00
   2.795e-02   0.000e+00   0.000e+00
   2.612e-02   0.000e+00   0.000e+00
   3.576e-02   0.000e+00   0.000e+00
   1.854e-02   0.000e+00   0.000e+00
   2.612e-02   0.000e+00   0.000e+00
   2.795e-02   0.000e+00   0.000e+00
   5.282e-02   0.000e+00   0.000e+00
   6.547e-02   0.000e+00   0.000e+00
   3.825e-02   0.000e+00   0.000e+00
   8.979e-02   0.000e+00   0.000e+00
   1.079e-01   0.000e+00   0.000e+00
   6.547e-02   0.000e+00   0.000e+00
   1.484e-01   0.000e+00   0.000e+00
   1.719e-01   0.000e+00   0.000e+00
   1.079e-01   0.000e+00   0.000e+00
   1.068e-01   0.000e+00   0.000e+00
   1.352e-01   0.000e+00   0.000e+00
   2.076e-01   0.000e+00   0.000e+00
   6.315e-02   0.000e+00   0.000e+00
   8.493e-02   0.000e+00   0.000e+00
   1.352e-01   0.000e+00   0.000e+00
   3.584e-02   0.000e+00   0.000e+00
   5.128e-02   0.000e+00   0.000e+00
   8.493e-02   0.000e+00   0.000e+00
   1.851e-02   0.000e+00   0.000e+00
   2.905e-02   0.000e+00   0.000e+00
   5.128e-02   0.000e+00   0.000e+00
   4.495e-03   0.000e+00   0.000e+00
   1.417e-02   0.000e+00   0.000e+00
   2.905e-02   0.000e+00   0.000e+00
  -6.598e-03   0.000e+00   0.000e+00
   4.683e-03   0.000e+00   0.000e+00
   1.417e-02   0.000e+00   0.000e+00
  -1.443e-02   0.000e+00   0.000e+00
   2.939e-04   0.000e+00   0.000e+00
   4.683e-03   0.000e+00   0.000e+00
  -6.876e-02   0.000e+00   0.000e+00
  -5.127e-02   0.000e+00   0.000e+00
  -3.184e-02   0.000e+00   0.000e+00
  -3.313e-02   0.000e+00   0.000e+00
  -1.628e-02   0.000e+00   0.000e+00
  -5.127e-02   0.000e+00   0.000e+00
  -1.628e-02   0.000e+00   0.000e+00
  -3.184e-02   0.000e+00   0.000e+00
  -5.127e-02   0.000e+00   0.000e+00
  -3.199e-03   0.000e+00   0.000e+00
   3.173e-04   0.000e+00   0.000e+00
  -3.184e-02   0.000e+00   0.000e+00
  -1.628e-02   0.000e+00   0.000e+00
   2.939e-04   0.000e+00   0.000e+00
  -3.303e-03   0.000e+00   0.000e+00
   3.954e-05   0.000e+00   0.000e+00
  -5.434e-02   0.000e+00   0.000e+00
  -1.916e-02   0.000e+00   0.000e+00
  -3.313e-02   0.000e+00   0.000e+00
  -1.411e-03   0.000e+00   0.000e+00
  -1.241e-03   0.000e+00   0.000e+00
  -1.892e-03   0.000e+00   0.000e+00
  -5.581e-03   0.000e+00   0.000e+00
   7.354e-04   0.000e+00   0.000e+00
  -1.320e-03   0.000e+00   0.000e+00
  -1.202e-03   0.000e+00   0.000e+00
   7.903e-03   0.000e+00   0.000e+00
   6.554e-03   0.000e+00   0.000e+00
   7.354e-04   0.000e+00   0.000e+00
  -1.241e-03   0.000e+00   0.000e+00
  -4.343e-04   0.000e+00   0.000e+00
  -1.892e-03   0.000e+00   0.000e+00
   6.554e-03   0.000e+00   0.000e+00
  -1.202e-03   0.000e+00   0.000e+00
  -3.501e-04   0.000e+00   0.000e+00
   7.354e-04   0.000e+00   0.000e+00
  -1.916e-02   0.000e+00   0.000e+00
  -1.892e-03   0.000e+00   0.000e+00
  -4.343e-04   0.000e+00   0.000e+00
   6.744e-03   0.000e+00   0.000e+00
  -3.501e-04   0.000e+00   0.000e+00
   6.492e-03   0.000e+00   0.000e+00
   6.554e-03   0.000e+00   0.000e+00
   3.678e-03   0.000e+00   0.000e+00
   1.556e-02   0.000e+00   0.000e+00
   7.903e-03   0.000e+00   0.000e+00
   1.854e-02   0.000e+00   0.000e+00
   3.012e-02   0.000e+00   0.000e+00
   1.556e-02   0.000e+00   0.000e+00
   3.825e-02   0.000e+00   0.000e+00
   5.266e-02   0.000e+00   0.000e+00
   3.012e-02   0.000e+00   0.000e+00
   6.547e-02   0.000e+00   0.000e+00
   8.623e-02   0.000e+00   0.000e+00
   5.266e-02   0.000e+00   0.000e+00
   1.079e-01   0.000e+00   0.000e+00
   1.360e-01   0.000e+00   0.000e+00
   8.623e-02   0.000e+00   0.000e+00
   1.719e-01   0.000e+00   0.000e+00
   2.076e-01   0.000e+00   0.000e+00
   1.360e-01   0.000e+00   0.000e+00
   1.352e-01   0.000e+00   0.000e+00
   1.768e-01   0.000e+00   0.000e+00
   2.585e-01   0.000e+00   0.000e+00
   8.493e-02   0.000e+00   0.000e+00
   1.183e-01   0.000e+00   0.000e+00
   1.768e-01   0.000e+00   0.000e+00
   5.128e-02   0.000e+00   0.000e+00
   7.759e-02   0.000e+00   0.000e+00
   1.183e-01   0.000e+00   0.000e+00
   2.905e-02   0.000e+00   0.000e+00
   5.011e-02   0.000e+00   0.000e+00
   7.759e-02   0.000e+00   0.000e+00
   1.417e-02   0.000e+00   0.000e+00
   3.223e-02   0.000e+00   0.000e+00
   5.011e-02   0.000e+00   0.000e+00
   4.683e-03   0.000e+00   0.000e+00
   2.186e-02   0.000e+00   0.000e+00
   3.223e-02   0.000e+00   0.000e+00
   2.939e-04   0.000e+00   0.000e+00
   1.868e-02   0.000e+00   0.000e+00
   2.186e-02   0.000e+00   0.000e+00
  -3.313e-02   0.000e+00   0.000e+00
  -1.286e-02   0.000e+00   0.000e+00
   2.411e-03   0.000e+00   0.000e+00
   1.114e-02   0.000e+00   0.000e+00
   2.164e-02   0.000e+00   0.000e+00
   2.038e-02   0.000e+00   0.000e+00
  -1.286e-02   0.000e+00   0.000e+00
   2.177e-02   0.000e+00   0.000e+00
   2.018e-02   0.000e+00   0.000e+00
   2.091e-02   0.000e+00   0.000e+00
   2.038e-02   0.000e+00   0.000e+00
   1.697e-02   0.000e+00   0.000e+00
   2.411e-03   0.000e+00   0.000e+00
  -1.286e-02   0.000e+00   0.000e+00
   2.091e-02   0.000e+00   0.000e+00
   2.018e-02   0.000e+00   0.000e+00
   1.717e-02   0.000e+00   0.000e+00
   1.697e-02   0.000e+00   0.000e+00
   1.207e-02   0.000e+00   0.000e+00
   2.411e-03   0.000e+00   0.000e+00
   1.868e-02   0.000e+00   0.000e+00
   1.717e-02   0.000e+00   0.000e+00
   1.197e-02   0.000e+00   0.000e+00
   2.091e-02   0.000e+00   0.000e+00
  -1.916e-02   0.000e+00   0.000e+00
   2.403e-02   0.000e+00   0.000e+00
   1.114e-02   0.000e+00   0.000e+00
   7.903e-03   0.000e+00   0.000e+00
   1.608e-02   0.000e+00   0.000e+00
   1.527e-02   0.000e+00   0.000e+00
   2.546e-02   0.000e+00   0.000e+00
   2.455e-02   0.000e+00   0.000e+00
   1.608e-02   0.000e+00   0.000e+00
   2.455e-02   0.000e+00   0.000e+00
   1.527e-02   0.000e+00   0.000e+00
   1.608e-02   0.000e+00   0.000e+00
   2.403e-02   0.000e+00   0.000e+00
   2.320e-02   0.000e+00   0.000e+00
   2.612e-02   0.000e+00   0.000e+00
   2.346e-02   0.000e+00   0.000e+00
   2.614e-02   0.000e+00   0.000e+00
   1.527e-02   0.000e+00   0.000e+00
   2.455e-02   0.000e+00   0.000e+00
   1.556e-02   0.000e+00   0.000e+00
   3.419e-02   0.000e+00   0.000e+00
   2.546e-02   0.000e+00   0.000e+00
   3.012e-02   0.000e+00   0.000e+00
   5.138e-02   0.000e+00   0.000e+00
   3.419e-02   0.000e+00   0.000e+00
   5.266e-02   0.000e+00   0.000e+00
   7.863e-02   0.000e+00   0.000e+00
   5.138e-02   0.000e+00   0.000e+00
   8.623e-02   0.000e+00   0.000e+00
   1.191e-01   0.000e+00   0.000e+00
   7.863e-02   0.000e+00   0.000e+00
   1.360e-01   0.000e+00   0.000e+00
   1.772e-01   0.000e+00   0.000e+00
   1.191e-01   0.000e+00   0.000e+00
   2.076e-01   0.000e+00   0.000e+00
   2.586e-01   0.000e+00   0.000e+00
   1.772e-01   0.000e+00   0.000e+00
   1.768e-01   0.000e+00   0.000e+00
   2.352e-01   0.000e+00   0.000e+00
   3.283e-01   0.000e+00   0.000e+00
   1.183e-01   0.000e+00   0.000e+00
   1.669e-01   0.000e+00   0.000e+00
   2.352e-01   0.000e+00   0.000e+00
   7.759e-02   0.000e+00   0.000e+00
   1.180e-01   0.000e+00   0.000e+00
   1.669e-01   0.000e+00   0.000e+00
   5.011e-02   0.000e+00   0.000e+00
   8.399e-02   0.000e+00   0.000e+00
   1.180e-01   0.000e+00   0.000e+00
   3.223e-02   0.000e+00   0.000e+00
   6.147e-02   0.000e+00   0.000e+00
   8.399e-02   0.000e+00   0.000e+00
   2.186e-02   0.000e+00   0.000e+00
   4.802e-02   0.000e+00   0.000e+00
   6.147e-02   0.000e+00   0.000e+00
   1.868e-02   0.000e+00   0.000e+00
   4.240e-02   0.000e+00   0.000e+00
   4.802e-02   0.000e+00   0.000e+00
   1.114e-02   0.000e+00   0.000e+00
   3.301e-02   0.000e+00   0.000e+00
   2.793e-02   0.000e+00   0.000e+00
   3.230e-02   0.000e+00   0.000e+00
   2.770e-02   0.000e+00   0.000e+00
   3.394e-02   0.000e+00   0.000e+00
   3.069e-02   0.000e+00   0.000e+00
   4.312e-02   0.000e+00   0.000e+00
   4.214e-02   0.000e+00   0.000e+00
   3.394e-02   0.000e+00   0.000e+00
   4.214e-02   0.000e+00   0.000e+00
   3.069e-02   0.000e+00   0.000e+00
   3.394e-02   0.000e+00   0.000e+00
   4.240e-02   0.000e+00   0.000e+00
   3.069e-02   0.000e+00   0.000e+00
   4.214e-02   0.000e+00   0.000e+00
   2.403e-02   0.000e+00   0.000e+00
   2.821e-02   0.000e+00   0.000e+00
   3.234e-02   0.000e+00   0.000e+00
   2.776e-02   0.000e+00   0.000e+00
   3.245e-02   0.000e+00   0.000e+00
   3.453e-02   0.000e+00   0.000e+00
   3.538e-02   0.000e+00   0.000e+00
   4.536e-02   0.000e+00   0.000e+00
   4.433e-02   0.000e+00   0.000e+00
   3.453e-02   0.000e+00   0.000e+00
   4.433e-02   0.000e+00   0.000e+00
   3.538e-02   0.000e+00   0.000e+00
   3.453e-02   0.000e+00   0.000e+00
   4.312e-02   0.000e+00   0.000e+00
   3.538e-02   0.000e+00   0.000e+00
   4.433e-02   0.000e+00   0.000e+00
   2.546e-02   0.000e+00   0.000e+00
   5.045e-02   0.000e+00   0.000e+00
   4.536e-02   0.000e+00   0.000e+00
   3.419e-02   0.000e+00   0.000e+00
   6.304e-02   0.000e+00   0.000e+00
   5.045e-02   0.000e+00   0.000e+00
   5.138e-02   0.000e+00   0.000e+00
   8.503e-02   0.000e+00   0.000e+00
   6.304e-02   0.000e+00   0.000e+00
   7.863e-02   0.000e+00   0.000e+00
   1.187e-01   0.000e+00   0.000e+00
   8.503e-02   0.000e+00   0.000e+00
   1.191e-01   0.000e+00   0.000e+00
   1.674e-01   0.000e+00   0.000e+00
   1.187e-01   0.000e+00   0.000e+00
   1.772e-01   0.000e+00   0.000e+00
   2.355e-01   0.000e+00   0.000e+00
   1.674e-01   0.000e+00   0.000e+00
   2.586e-01   0.000e+00   0.000e+00
   3.283e-01   0.000e+00   0.000e+00
   2.355e-01   0.000e+00   0.000e+00
   2.352e-01   0.000e+00   0.000e+00
   3.150e-01   0.000e+00   0.000e+00
   4.214e-01   0.000e+00   0.000e+00
   1.669e-01   0.000e+00   0.000e+00
   2.352e-01   0.000e+00   0.000e+00
   3.150e-01   0.000e+00   0.000e+00
   1.180e-01   0.000e+00   0.000e+00
   1.766e-01   0.000e+00   0.000e+00
   2.352e-01   0.000e+00   0.000e+00
   8.399e-02   0.000e+00   0.000e+00
   1.348e-01   0.000e+00   0.000e+00
   1.766e-01   0.000e+00   0.000e+00
   6.147e-02   0.000e+00   0.000e+00
   1.062e-01   0.000e+00   0.000e+00
   1.348e-01   0.000e+00   0.000e+00
   4.802e-02   0.000e+00   0.000e+00
   8.816e-02   0.000e+00   0.000e+00
   1.062e-01   0.000e+00   0.000e+00
   4.240e-02   0.000e+00   0.000e+00
   7.876e-02   0.000e+00   0.000e+00
   8.816e-02   0.000e+00   0.000e+00
   4.312e-02   0.000e+00   0.000e+00
   7.636e-02   0.000e+00   0.000e+00
   7.876e-02   0.000e+00   0.000e+00
   4.536e-02   0.000e+00   0.000e+00
   7.968e-02   0.000e+00   0.000e+00
   7.636e-02   0.000e+00   0.000e+00
   5.045e-02   0.000e+00   0.000e+00
   8.921e-02   0.000e+00   0.000e+00
   7.968e-02   0.000e+00   0.000e+00
   6.304e-02   0.000e+00   0.000e+00
   1.070e-01   0.000e+00   0.000e+00
   8.921e-02   0.000e+00   0.000e+00
   8.503e-02   0.000e+00   0.000e+00
   1.353e-01   0.000e+00   0.000e+00
   1.070e-01   0.000e+00   0.000e+00
   1.187e-01   0.000e+00   0.000e+00
   1.770e-01   0.000e+00   0.000e+00
   1.353e-01   0.000e+00   0.000e+00
   1.674e-01   0.000e+00   0.000e+00
   2.354e-01   0.000e+00   0.000e+00
   1.770e-01   0.000e+00   0.000e+00
   2.355e-01   0.000e+00   0.000e+00
   3.152e-01   0.000e+00   0.000e+00
   2.354e-01   0.000e+00   0.000e+00
   3.283e-01   0.000e+00   0.000e+00
   4.214e-01   0.000e+00   0.000e+00
   3.152e-01   0.000e+00   0.000e+00
   3.150e-01   0.000e+00   0.000e+00
   4.214e-01   0.000e+00   0.000e+00
   5.430e-01   0.000e+00   0.000e+00
   2.352e-01   0.000e+00   0.000e+00
   3.283e-01   0.000e+00   0.000e+00
   4.214e-01   0.000e+00   0.000e+00
   1.766e-01   0.000e+00   0.000e+00
   2.585e-01   0.000e+00   0.000e+00
   3.283e-01   0.000e+00   0.000e+00
   1.348e-01   0.000e+00   0.000e+00
   2.076e-01   0.000e+00   0.000e+00
   2.585e-01   0.000e+00   0.000e+00
   1.062e-01   0.000e+00   0.000e+00
   1.718e-01   0.000e+00   0.000e+00
   2.076e-01   0.000e+00   0.000e+00
   8.816e-02   0.000e+00   0.000e+00
   1.483e-01   0.000e+00   0.000e+00
   1.718e-01   0.000e+00   0.000e+00
   7.876e-02   0.000e+00   0.000e+00
   1.351e-01   0.000e+00   0.000e+00
   1.483e-01   0.000e+00   0.000e+00
   7.636e-02   0.000e+00   0.000e+00
   1.308e-01   0.000e+00   0.000e+00
   1.351e-01   0.000e+00   0.000e+00
   7.968e-02   0.000e+00   0.000e+00
   1.351e-01   0.000e+00   0.000e+00
   1.308e-01   0.000e+00   0.000e+00
   8.921e-02   0.000e+00   0.000e+00
   1.484e-01   0.000e+00   0.000e+00
   1.351e-01   0.000e+00   0.000e+00
   1.070e-01   0.000e+00   0.000e+00
   1.719e-01   0.000e+00   0.000e+00
   1.484e-01   0.000e+00   0.000e+00
   1.353e-01   0.000e+00   0.000e+00
   2.076e-01   0.000e+00   0.000e+00
   1.719e-01   0.000e+00   0.000e+00
   1.770e-01   0.000e+00   0.000e+00
   2.586e-01   0.000e+00   0.000e+00
   2.076e-01   0.000e+00   0.000e+00
   2.354e-01   0.000e+00   0.000e+00
   3.283e-01   0.000e+00   0.000e+00
   2.586e-01   0.000e+00   0.000e+00
   3.152e-01   0.000e+00   0.000e+00
   4.214e-01   0.000e+00   0.000e+00
   3.283e-01   0.000e+00   0.000e+00
   4.214e-01   0.000e+00   0.000e+00
   5.430e-01   0.000e+00   0.000e+00
   4.214e-01   0.000e+00   0.000e+00
