# vtk DataFile Version 2.0
Bulk mesh generated by generateVTK.m
ASCII
DATASET UNSTRUCTURED_GRID

POINTS 92 float
   0.000e+00  -5.000e-01   0.000e+00
   2.500e-01  -5.000e-01   0.000e+00
   0.000e+00  -2.500e-01   0.000e+00
   4.000e-01  -4.000e-01   0.000e+00
   4.000e-01  -5.000e-01   0.000e+00
   2.500e-01  -2.500e-01   0.000e+00
   2.500e-01  -5.000e-01   0.000e+00
   5.000e-01  -5.000e-01   0.000e+00
   4.000e-01  -4.000e-01   0.000e+00
   4.000e-01  -5.000e-01   0.000e+00
   2.500e-01  -2.500e-01   0.000e+00
   0.000e+00  -2.500e-01   0.000e+00
   2.500e-01  -5.000e-01   0.000e+00
   0.000e+00   0.000e+00   0.000e+00
   0.000e+00  -2.500e-01   0.000e+00
   2.500e-01  -2.500e-01   0.000e+00
   1.000e+00  -5.000e-01   0.000e+00
   5.000e-01   0.000e+00   0.000e+00
   5.000e-01  -5.000e-01   0.000e+00
   4.000e-01   0.000e+00   0.000e+00
   4.000e-01  -1.500e-01   0.000e+00
   2.500e-01   0.000e+00   0.000e+00
   5.000e-01   0.000e+00   0.000e+00
   4.000e-01   0.000e+00   0.000e+00
   4.000e-01  -1.500e-01   0.000e+00
   5.000e-01  -2.500e-01   0.000e+00
   0.000e+00   0.000e+00   0.000e+00
   2.500e-01  -2.500e-01   0.000e+00
   2.500e-01   0.000e+00   0.000e+00
   2.500e-01  -2.500e-01   0.000e+00
   4.000e-01  -1.500e-01   0.000e+00
   4.000e-01  -2.500e-01   0.000e+00
   2.500e-01   0.000e+00   0.000e+00
   4.000e-01  -1.500e-01   0.000e+00
   4.000e-01  -2.500e-01   0.000e+00
   5.000e-01  -2.500e-01   0.000e+00
   4.000e-01  -2.500e-01   0.000e+00
   4.000e-01  -4.000e-01   0.000e+00
   2.500e-01  -2.500e-01   0.000e+00
   5.000e-01  -5.000e-01   0.000e+00
   5.000e-01  -2.500e-01   0.000e+00
   4.000e-01  -2.500e-01   0.000e+00
   4.000e-01  -4.000e-01   0.000e+00
   0.000e+00   5.000e-01   0.000e+00
   0.000e+00   2.500e-01   0.000e+00
   2.500e-01   2.500e-01   0.000e+00
   0.000e+00   0.000e+00   0.000e+00
   2.500e-01   0.000e+00   0.000e+00
   0.000e+00   2.500e-01   0.000e+00
   2.500e-01   0.000e+00   0.000e+00
   2.500e-01   2.500e-01   0.000e+00
   0.000e+00   2.500e-01   0.000e+00
   4.000e-01   1.000e-01   0.000e+00
   4.000e-01   0.000e+00   0.000e+00
   2.500e-01   2.500e-01   0.000e+00
   2.500e-01   0.000e+00   0.000e+00
   5.000e-01   0.000e+00   0.000e+00
   4.000e-01   1.000e-01   0.000e+00
   4.000e-01   0.000e+00   0.000e+00
   1.000e+00  -5.000e-01   0.000e+00
   1.000e+00   0.000e+00   0.000e+00
   5.000e-01   0.000e+00   0.000e+00
   1.000e+00   5.000e-01   0.000e+00
   5.000e-01   5.000e-01   0.000e+00
   1.000e+00   0.000e+00   0.000e+00
   5.000e-01   5.000e-01   0.000e+00
   5.000e-01   0.000e+00   0.000e+00
   1.000e+00   0.000e+00   0.000e+00
   0.000e+00   5.000e-01   0.000e+00
   2.500e-01   2.500e-01   0.000e+00
   2.500e-01   5.000e-01   0.000e+00
   4.000e-01   1.000e-01   0.000e+00
   4.000e-01   2.500e-01   0.000e+00
   2.500e-01   2.500e-01   0.000e+00
   5.000e-01   0.000e+00   0.000e+00
   5.000e-01   2.500e-01   0.000e+00
   4.000e-01   1.000e-01   0.000e+00
   4.000e-01   2.500e-01   0.000e+00
   4.000e-01   2.500e-01   0.000e+00
   4.000e-01   3.500e-01   0.000e+00
   2.500e-01   5.000e-01   0.000e+00
   2.500e-01   2.500e-01   0.000e+00
   5.000e-01   2.500e-01   0.000e+00
   4.000e-01   2.500e-01   0.000e+00
   4.000e-01   3.500e-01   0.000e+00
   4.000e-01   3.500e-01   0.000e+00
   4.000e-01   5.000e-01   0.000e+00
   2.500e-01   5.000e-01   0.000e+00
   5.000e-01   5.000e-01   0.000e+00
   4.000e-01   3.500e-01   0.000e+00
   4.000e-01   5.000e-01   0.000e+00
   5.000e-01   2.500e-01   0.000e+00

CELLS 28 120
         3         0         1         2
         4         3         5         6         4
         3         7         8         9
         3        10        11        12
         3        13        14        15
         3        16        17        18
         3        19        20        21
         4        22        23        24        25
         3        26        27        28
         4        29        31        30        32
         3        33        34        35
         3        36        37        38
         4        39        40        41        42
         3        43        44        45
         3        46        47        48
         3        49        50        51
         4        52        54        55        53
         3        56        57        58
         3        59        60        61
         3        62        63        64
         3        65        66        67
         3        68        69        70
         3        71        72        73
         4        74        75        77        76
         4        78        79        80        81
         3        82        83        84
         3        85        86        87
         4        88        90        89        91

CELL_TYPES 28
   5
   9
   5
   5
   5
   5
   5
   9
   5
   9
   5
   5
   9
   5
   5
   5
   9
   5
   5
   5
   5
   5
   5
   9
   9
   5
   5
   9

CELL_DATA 28
SCALARS domain int
LOOKUP_TABLE default
   1
   1
   2
   1
   1
   2
   1
   2
   1
   1
   2
   1
   2
   1
   1
   1
   1
   2
   2
   2
   2
   1
   1
   2
   1
   2
   1
   2

SCALARS E float
LOOKUP_TABLE default
   1.000e+03
   1.000e+03
   1.000e+03
   1.000e+03
   1.000e+03
   1.000e+03
   1.000e+03
   1.000e+03
   1.000e+03
   1.000e+03
   1.000e+03
   1.000e+03
   1.000e+03
   1.000e+03
   1.000e+03
   1.000e+03
   1.000e+03
   1.000e+03
   1.000e+03
   1.000e+03
   1.000e+03
   1.000e+03
   1.000e+03
   1.000e+03
   1.000e+03
   1.000e+03
   1.000e+03
   1.000e+03

SCALARS nu float
LOOKUP_TABLE default
   0.000e+00
   0.000e+00
   0.000e+00
   0.000e+00
   0.000e+00
   0.000e+00
   0.000e+00
   0.000e+00
   0.000e+00
   0.000e+00
   0.000e+00
   0.000e+00
   0.000e+00
   0.000e+00
   0.000e+00
   0.000e+00
   0.000e+00
   0.000e+00
   0.000e+00
   0.000e+00
   0.000e+00
   0.000e+00
   0.000e+00
   0.000e+00
   0.000e+00
   0.000e+00
   0.000e+00
   0.000e+00

SCALARS vonMisesStress float
LOOKUP_TABLE default
   3.333e-01
   3.333e-01
   3.333e-01
   3.333e-01
   3.333e-01
   3.333e-01
   3.333e-01
   3.333e-01
   3.333e-01
   3.333e-01
   3.333e-01
   3.333e-01
   3.333e-01
   3.333e-01
   3.333e-01
   3.333e-01
   3.333e-01
   3.333e-01
   3.333e-01
   3.333e-01
   3.333e-01
   3.333e-01
   3.333e-01
   3.333e-01
   3.333e-01
   3.333e-01
   3.333e-01
   3.333e-01

TENSORS stress float
  -3.333e-01  -2.999e-11   0.000e+00
  -2.999e-11   3.406e-13   0.000e+00
   0.000e+00   0.000e+00   0.000e+00

  -3.333e-01  -2.999e-11   0.000e+00
  -2.999e-11   3.406e-13   0.000e+00
   0.000e+00   0.000e+00   0.000e+00

  -3.333e-01  -5.677e-11   0.000e+00
  -5.677e-11  -5.288e-11   0.000e+00
   0.000e+00   0.000e+00   0.000e+00

  -3.333e-01  -2.999e-11   0.000e+00
  -2.999e-11   3.406e-13   0.000e+00
   0.000e+00   0.000e+00   0.000e+00

  -3.333e-01  -2.999e-11   0.000e+00
  -2.999e-11   3.406e-13   0.000e+00
   0.000e+00   0.000e+00   0.000e+00

  -3.333e-01  -5.677e-11   0.000e+00
  -5.677e-11  -5.288e-11   0.000e+00
   0.000e+00   0.000e+00   0.000e+00

  -3.333e-01  -2.999e-11   0.000e+00
  -2.999e-11   3.406e-13   0.000e+00
   0.000e+00   0.000e+00   0.000e+00

  -3.333e-01  -5.677e-11   0.000e+00
  -5.677e-11  -5.288e-11   0.000e+00
   0.000e+00   0.000e+00   0.000e+00

  -3.333e-01  -2.999e-11   0.000e+00
  -2.999e-11   3.406e-13   0.000e+00
   0.000e+00   0.000e+00   0.000e+00

  -3.333e-01  -2.999e-11   0.000e+00
  -2.999e-11   3.406e-13   0.000e+00
   0.000e+00   0.000e+00   0.000e+00

  -3.333e-01  -5.677e-11   0.000e+00
  -5.677e-11  -5.288e-11   0.000e+00
   0.000e+00   0.000e+00   0.000e+00

  -3.333e-01  -2.999e-11   0.000e+00
  -2.999e-11   3.406e-13   0.000e+00
   0.000e+00   0.000e+00   0.000e+00

  -3.333e-01  -5.677e-11   0.000e+00
  -5.677e-11  -5.288e-11   0.000e+00
   0.000e+00   0.000e+00   0.000e+00

  -3.333e-01  -2.999e-11   0.000e+00
  -2.999e-11   3.406e-13   0.000e+00
   0.000e+00   0.000e+00   0.000e+00

  -3.333e-01  -2.999e-11   0.000e+00
  -2.999e-11   3.406e-13   0.000e+00
   0.000e+00   0.000e+00   0.000e+00

  -3.333e-01  -2.999e-11   0.000e+00
  -2.999e-11   3.406e-13   0.000e+00
   0.000e+00   0.000e+00   0.000e+00

  -3.333e-01  -2.999e-11   0.000e+00
  -2.999e-11   3.406e-13   0.000e+00
   0.000e+00   0.000e+00   0.000e+00

  -3.333e-01  -5.677e-11   0.000e+00
  -5.677e-11  -5.288e-11   0.000e+00
   0.000e+00   0.000e+00   0.000e+00

   3.333e-01  -1.108e-11   0.000e+00
  -1.108e-11  -6.500e-12   0.000e+00
   0.000e+00   0.000e+00   0.000e+00

   3.333e-01  -1.108e-11   0.000e+00
  -1.108e-11  -6.500e-12   0.000e+00
   0.000e+00   0.000e+00   0.000e+00

   3.333e-01  -1.108e-11   0.000e+00
  -1.108e-11  -6.500e-12   0.000e+00
   0.000e+00   0.000e+00   0.000e+00

   3.333e-01   1.436e-11   0.000e+00
   1.436e-11   2.113e-10   0.000e+00
   0.000e+00   0.000e+00   0.000e+00

   3.333e-01   1.436e-11   0.000e+00
   1.436e-11   2.113e-10   0.000e+00
   0.000e+00   0.000e+00   0.000e+00

   3.333e-01  -1.108e-11   0.000e+00
  -1.108e-11  -6.500e-12   0.000e+00
   0.000e+00   0.000e+00   0.000e+00

   3.333e-01   1.436e-11   0.000e+00
   1.436e-11   2.113e-10   0.000e+00
   0.000e+00   0.000e+00   0.000e+00

   3.333e-01  -1.108e-11   0.000e+00
  -1.108e-11  -6.500e-12   0.000e+00
   0.000e+00   0.000e+00   0.000e+00

   3.333e-01   1.436e-11   0.000e+00
   1.436e-11   2.113e-10   0.000e+00
   0.000e+00   0.000e+00   0.000e+00

   3.333e-01  -1.108e-11   0.000e+00
  -1.108e-11  -6.500e-12   0.000e+00
   0.000e+00   0.000e+00   0.000e+00


POINT_DATA 92
VECTORS displacement float
   9.874e-15   5.731e-15   0.000e+00
  -2.500e-04  -6.250e-05   0.000e+00
   5.354e-15   1.237e-15   0.000e+00
  -3.200e-04  -1.600e-04   0.000e+00
  -4.000e-04  -1.600e-04   0.000e+00
  -1.250e-04  -6.250e-05   0.000e+00
  -2.500e-04  -6.250e-05   0.000e+00
  -5.000e-04  -2.500e-04   0.000e+00
  -3.200e-04  -1.600e-04   0.000e+00
  -4.000e-04  -1.600e-04   0.000e+00
  -1.250e-04  -6.250e-05   0.000e+00
   5.354e-15   1.237e-15   0.000e+00
  -2.500e-04  -6.250e-05   0.000e+00
   1.802e-15  -1.415e-15   0.000e+00
   5.354e-15   1.237e-15   0.000e+00
  -1.250e-04  -6.250e-05   0.000e+00
  -1.000e-03  -1.000e-03   0.000e+00
  -1.687e-14  -2.500e-04   0.000e+00
  -5.000e-04  -2.500e-04   0.000e+00
  -2.248e-14  -1.600e-04   0.000e+00
  -1.200e-04  -1.600e-04   0.000e+00
  -9.805e-15  -6.250e-05   0.000e+00
  -1.687e-14  -2.500e-04   0.000e+00
   4.280e-15  -1.600e-04   0.000e+00
  -1.200e-04  -1.600e-04   0.000e+00
  -2.500e-04  -2.500e-04   0.000e+00
   1.802e-15  -1.415e-15   0.000e+00
  -1.250e-04  -6.250e-05   0.000e+00
  -9.805e-15  -6.250e-05   0.000e+00
  -1.250e-04  -6.250e-05   0.000e+00
  -1.200e-04  -1.600e-04   0.000e+00
  -2.000e-04  -1.600e-04   0.000e+00
  -9.805e-15  -6.250e-05   0.000e+00
  -1.200e-04  -1.600e-04   0.000e+00
  -2.000e-04  -1.600e-04   0.000e+00
  -2.500e-04  -2.500e-04   0.000e+00
  -2.000e-04  -1.600e-04   0.000e+00
  -3.200e-04  -1.600e-04   0.000e+00
  -1.250e-04  -6.250e-05   0.000e+00
  -5.000e-04  -2.500e-04   0.000e+00
  -2.500e-04  -2.500e-04   0.000e+00
  -2.000e-04  -1.600e-04   0.000e+00
  -3.200e-04  -1.600e-04   0.000e+00
  -2.400e-15  -1.197e-15   0.000e+00
  -7.825e-16  -2.227e-15   0.000e+00
   1.250e-04  -6.250e-05   0.000e+00
   1.802e-15  -1.415e-15   0.000e+00
  -9.805e-15  -6.250e-05   0.000e+00
  -7.825e-16  -2.227e-15   0.000e+00
  -9.805e-15  -6.250e-05   0.000e+00
   1.250e-04  -6.250e-05   0.000e+00
  -7.825e-16  -2.227e-15   0.000e+00
   8.000e-05  -1.600e-04   0.000e+00
  -2.248e-14  -1.600e-04   0.000e+00
   1.250e-04  -6.250e-05   0.000e+00
  -9.805e-15  -6.250e-05   0.000e+00
  -1.687e-14  -2.500e-04   0.000e+00
   8.000e-05  -1.600e-04   0.000e+00
   4.280e-15  -1.600e-04   0.000e+00
  -1.000e-03  -1.000e-03   0.000e+00
   1.644e-14  -1.000e-03   0.000e+00
  -1.687e-14  -2.500e-04   0.000e+00
   1.000e-03  -1.000e-03   0.000e+00
   5.000e-04  -2.500e-04   0.000e+00
   1.644e-14  -1.000e-03   0.000e+00
   5.000e-04  -2.500e-04   0.000e+00
  -1.687e-14  -2.500e-04   0.000e+00
   1.644e-14  -1.000e-03   0.000e+00
  -2.400e-15  -1.197e-15   0.000e+00
   1.250e-04  -6.250e-05   0.000e+00
   2.500e-04  -6.250e-05   0.000e+00
   8.000e-05  -1.600e-04   0.000e+00
   2.000e-04  -1.600e-04   0.000e+00
   1.250e-04  -6.250e-05   0.000e+00
  -1.687e-14  -2.500e-04   0.000e+00
   2.500e-04  -2.500e-04   0.000e+00
   8.000e-05  -1.600e-04   0.000e+00
   2.000e-04  -1.600e-04   0.000e+00
   2.000e-04  -1.600e-04   0.000e+00
   2.800e-04  -1.600e-04   0.000e+00
   2.500e-04  -6.250e-05   0.000e+00
   1.250e-04  -6.250e-05   0.000e+00
   2.500e-04  -2.500e-04   0.000e+00
   2.000e-04  -1.600e-04   0.000e+00
   2.800e-04  -1.600e-04   0.000e+00
   2.800e-04  -1.600e-04   0.000e+00
   4.000e-04  -1.600e-04   0.000e+00
   2.500e-04  -6.250e-05   0.000e+00
   5.000e-04  -2.500e-04   0.000e+00
   2.800e-04  -1.600e-04   0.000e+00
   4.000e-04  -1.600e-04   0.000e+00
   2.500e-04  -2.500e-04   0.000e+00
